##TITLE=Bis(4-nitrophenyl)disulfide
##JCAMP-DX=4.24
##DATA TYPE=MASS SPECTRUM
##ORIGIN=NIST Mass Spectrometry Data Center, 1998.
##OWNER=NIST Mass Spectrometry Data Center
Collection (C) 2014 copyright by the U.S. Secretary of Commerce
on behalf of the United States of America. All rights reserved.
##CAS REGISTRY NO=100-32-3
##$NIST MASS SPEC NO=292016
##MOLFORM=C12 H8 N2 O4 S2
##MW=308
##$NIST SOURCE=MSDC
##XUNITS=M/Z
##YUNITS=RELATIVE INTENSITY
##XFACTOR=1
##YFACTOR=1
##FIRSTX=26
##LASTX=312
##FIRSTY=10
##MAXX=312
##MINX=26
##MAXY=9999
##MINY=10
##NPOINTS=183
##PEAK TABLE=(XY..XY)
26,10 27,10 30,2540 31,10
33,10 37,60 38,200 39,360
40,20 42,10 45,820 46,60
47,40 48,10 49,20 50,620
51,330 52,110 53,120 54,20
55,10 57,180 58,880 59,50
60,50 61,80 62,330 63,1630
64,420 65,490 66,40 67,10
68,10 69,2750 70,560 71,190
72,40 73,30 74,240 75,290
76,340 77,60 78,30 79,60
80,160 81,280 82,1710 83,160
84,110 85,20 86,10 87,10
88,10 89,20 90,30 91,10
92,80 93,170 94,30 95,350
96,1300 97,330 98,250 99,30
100,10 101,10 102,20 103,10
104,10 105,50 106,80 107,270
108,4140 109,650 110,240 111,40
112,20 113,10 114,10 115,30
116,10 120,10 121,20 122,60
123,60 124,1460 125,510 126,120
127,70 128,40 129,10 130,10
134,10 136,10 137,10 138,1890
139,410 140,1010 141,110 142,80
145,10 146,10 147,20 150,10
151,30 152,50 153,20 154,390
155,620 156,80 157,40 158,20
159,10 160,30 166,10 167,10
168,70 169,130 170,120 171,640
172,140 173,40 174,10 177,10
178,10 181,10 182,30 183,120
184,200 185,40 186,50 187,50
188,10 189,10 190,30 191,10
192,10 198,50 199,80 200,50
201,20 202,20 203,310 204,180
205,50 206,20 214,150 215,200
216,210 217,70 218,30 219,10
228,10 229,60 230,10 231,30
232,170 233,50 234,20 244,10
245,30 246,10 248,10 250,20
258,20 260,10 261,40 262,270
263,50 264,20 274,10 276,10
278,370 279,60 280,30 292,80
293,10 294,10 308,9999 309,1520
310,1070 311,140 312,40
##END=
