##TITLE=N,N-Bis(2-hydroxyethyl)-2-aminoethanesulfonic acid
##JCAMP-DX=4.24
##DATA TYPE=MASS SPECTRUM
##ORIGIN=Japan AIST/NIMC Database- Spectrum MS-NW-1891
##OWNER=NIST Mass Spectrometry Data Center
Collection (C) 2014 copyright by the U.S. Secretary of Commerce
on behalf of the United States of America. All rights reserved.
##CAS REGISTRY NO=10191-18-1
##$NIST MASS SPEC NO=233593
##MOLFORM=C6 H15 N O5 S
##MW=213
##$NIST SOURCE=MSDC
##XUNITS=M/Z
##YUNITS=RELATIVE INTENSITY
##XFACTOR=1
##YFACTOR=1
##FIRSTX=24
##LASTX=199
##FIRSTY=119
##MAXX=199
##MINX=24
##MAXY=9999
##MINY=10
##NPOINTS=175
##PEAK TABLE=(XY..XY)
24,119 25,539 26,3859 27,9999
28,4799 29,3199 30,1779 31,359
32,439 33,80 34,149 36,40
37,60 38,119 39,589 40,329
41,1529 42,6229 43,5039 44,5089
45,459 46,189 47,80 48,3889
49,169 50,209 51,249 52,309
53,269 54,2109 55,6029 56,4379
57,6019 58,1119 59,169 60,169
61,70 62,50 63,119 64,8909
65,4589 66,559 67,309 68,369
69,419 70,1049 71,169 72,269
73,169 74,40 75,40 76,80
77,209 78,279 79,199 80,309
81,449 82,819 83,549 84,889
85,379 86,1079 87,3599 88,169
89,50 90,40 91,419 92,119
93,239 94,229 95,99 96,99
97,159 98,469 99,99 100,5589
101,349 102,60 103,60 104,80
105,119 106,99 107,90 108,179
109,149 110,99 111,589 112,1929
113,1419 114,229 115,279 116,50
117,109 118,70 119,90 120,90
121,60 122,50 123,40 124,40
125,40 126,20 127,40 128,60
129,70 130,90 131,99 132,80
133,70 134,60 135,60 136,50
137,80 138,50 139,40 140,20
141,40 142,40 143,60 144,50
145,50 146,60 147,50 148,40
149,40 150,40 151,40 152,40
153,30 154,30 155,30 156,40
157,40 158,50 159,40 160,40
161,40 162,40 163,30 164,60
165,60 166,30 167,40 168,30
169,30 170,40 171,40 172,30
173,30 174,30 175,60 176,30
177,30 178,30 179,30 180,30
181,30 182,40 183,30 184,30
185,30 186,30 187,30 188,20
189,30 190,20 191,30 192,20
193,40 194,70 195,169 196,40
197,30 198,30 199,10
##END=
