##TITLE=Benzene, 1,2,4-trimethyl-5-(1-methylethyl)-
##JCAMP-DX=4.24
##DATA TYPE=MASS SPECTRUM
##OWNER=NIST Mass Spectrometry Data Center
Collection (C) 2014 copyright by the U.S. Secretary of Commerce
on behalf of the United States of America. All rights reserved.
##CAS REGISTRY NO=10222-95-4
##$NIST MASS SPEC NO=5855
##MOLFORM=C12 H18
##MW=162
##$NIST SOURCE=MSDC
##XUNITS=M/Z
##YUNITS=RELATIVE INTENSITY
##XFACTOR=1
##YFACTOR=1
##FIRSTX=13
##LASTX=163
##FIRSTY=10
##MAXX=163
##MINX=13
##MAXY=9999
##MINY=10
##NPOINTS=115
##PEAK TABLE=(XY..XY)
13,10 14,50 15,591 16,10
25,10 26,70 27,851 28,260
29,330 30,30 31,10 37,10
38,50 39,911 40,110 41,1031
42,70 43,250 44,10 45,60
50,110 51,470 52,150 53,390
54,20 55,260 56,20 57,60
58,90 59,10 60,40 61,10
62,40 63,220 64,260 65,470
66,120 67,80 68,10 69,140
70,50 71,180 72,70 73,20
74,50 75,60 76,40 77,540
78,180 79,220 80,30 81,20
82,10 83,60 84,10 85,20
86,10 87,10 88,10 89,50
90,10 91,871 92,70 93,70
94,10 95,10 96,20 97,10
98,10 102,50 103,160 104,80
105,550 106,60 107,190 108,10
109,10 111,10 113,10 114,10
115,480 116,260 117,410 118,50
119,751 120,80 121,90 122,10
123,10 124,10 125,40 126,10
127,80 128,230 129,200 130,110
131,390 132,300 133,190 134,20
139,10 141,30 142,10 143,20
144,10 145,220 146,80 147,9999
148,1151 149,50 159,10 160,10
161,50 162,2212 163,250
##END=
