##TITLE=Maprotiline
##JCAMP-DX=4.24
##DATA TYPE=MASS SPECTRUM
##ORIGIN=AAFS Toxicology Section MS DB Committee, U. Alberta, Canada
##OWNER=NIST Mass Spectrometry Data Center
Collection (C) 2014 copyright by the U.S. Secretary of Commerce
on behalf of the United States of America. All rights reserved.
##CAS REGISTRY NO=10262-69-8
##$NIST MASS SPEC NO=246615
##MOLFORM=C20 H23 N
##MW=277
##$NIST SOURCE=MSDC
##XUNITS=M/Z
##YUNITS=RELATIVE INTENSITY
##XFACTOR=1
##YFACTOR=1
##FIRSTX=30
##LASTX=279
##FIRSTY=870
##MAXX=279
##MINX=30
##MAXY=9999
##MINY=10
##NPOINTS=134
##PEAK TABLE=(XY..XY)
30,870 31,470 34,10 39,80
40,10 41,90 42,580 43,230
44,9999 45,290 50,30 51,60
52,20 53,20 54,40 55,30
56,390 57,470 58,60 59,1581
60,70 62,20 63,60 65,40
66,10 67,20 68,50 70,1361
71,650 72,50 73,10 74,30
75,50 76,50 77,90 78,30
79,20 81,10 82,30 87,30
88,40 89,100 91,110 92,10
94,70 99,30 100,30 101,130
102,70 105,30 106,20 110,10
113,30 114,10 115,250 116,40
117,110 118,20 125,20 126,70
127,90 128,140 129,60 130,10
131,20 137,20 138,20 139,150
140,30 141,70 142,30 149,50
150,230 151,330 152,350 153,80
154,20 155,20 161,20 162,40
163,260 164,180 165,670 166,110
167,10 174,70 175,110 176,830
177,400 178,1090 179,230 180,30
186,20 187,160 188,170 189,1591
190,710 191,1291 192,310 193,40
198,10 199,30 200,330 201,360
202,2111 203,2412 204,1851 205,890
206,150 207,10 211,20 213,120
214,50 215,440 216,150 217,480
218,420 219,90 220,20 226,30
227,30 228,30 229,20 230,20
231,10 232,20 233,30 246,20
247,20 248,60 249,20 277,1951
278,450 279,50
##END=
