##TITLE=Resmethrin
##JCAMP-DX=4.24
##DATA TYPE=MASS SPECTRUM
##ORIGIN=J. SHAW, BORRISTON RESEARCH, ROCKVILLE, MD, USA
##OWNER=NIST Mass Spectrometry Data Center
Collection (C) 2014 copyright by the U.S. Secretary of Commerce
on behalf of the United States of America. All rights reserved.
##CAS REGISTRY NO=10453-86-8
##$NIST MASS SPEC NO=60251
##MOLFORM=C22 H26 O3
##MW=338
##$NIST SOURCE=MSDC
##XUNITS=M/Z
##YUNITS=RELATIVE INTENSITY
##XFACTOR=1
##YFACTOR=1
##FIRSTX=12
##LASTX=341
##FIRSTY=20
##MAXX=341
##MINX=12
##MAXY=9999
##MINY=10
##NPOINTS=146
##PEAK TABLE=(XY..XY)
12,20 13,10 14,30 15,210
16,50 17,70 18,180 27,1461
28,260 29,1451 30,30 31,40
37,20 39,2172 40,440 41,3733
42,300 43,3393 44,150 45,40
50,180 51,580 52,260 53,1051
54,140 55,1421 56,120 57,410
58,30 59,60 61,10 62,50
63,250 65,1301 66,380 67,940
68,120 69,740 70,60 71,70
74,30 75,50 77,920 78,280
79,890 81,3403 82,270 83,430
84,30 85,80 86,20 87,20
88,20 89,160 91,2382 92,240
93,640 94,160 95,610 96,80
97,60 101,20 102,110 103,140
104,110 105,230 107,520 108,190
109,320 110,270 111,60 113,30
115,1411 116,180 117,380 118,50
119,30 121,360 123,9999 124,920
125,90 127,770 128,3023 129,480
130,40 131,20 133,20 135,20
136,10 137,20 139,190 141,1201
143,3773 144,370 145,40 147,50
149,70 151,390 152,100 153,130
154,20 155,10 157,40 158,10
159,10 161,30 162,30 163,10
166,780 167,130 168,30 171,4984
172,1061 173,110 174,10 175,10
185,20 186,10 187,20 188,20
199,10 201,20 203,40 211,10
212,40 213,30 219,10 223,10
225,20 228,40 238,60 239,160
247,120 248,10 251,30 252,10
256,10 261,30 279,20 280,30
294,90 295,10 323,50 338,440
339,40 341,70
##END=
