##TITLE=Thioctic acid
##JCAMP-DX=4.24
##DATA TYPE=MASS SPECTRUM
##ORIGIN=NIST Mass Spectrometry Data Center, 1994
##OWNER=NIST Mass Spectrometry Data Center
Collection (C) 2014 copyright by the U.S. Secretary of Commerce
on behalf of the United States of America. All rights reserved.
##CAS REGISTRY NO=1077-28-7
##$NIST MASS SPEC NO=134350
##MOLFORM=C8 H14 O2 S2
##MW=206
##$NIST SOURCE=MSDC
##XUNITS=M/Z
##YUNITS=RELATIVE INTENSITY
##XFACTOR=1
##YFACTOR=1
##FIRSTX=15
##LASTX=210
##FIRSTY=298
##MAXX=210
##MINX=15
##MAXY=9999
##MINY=21
##NPOINTS=129
##PEAK TABLE=(XY..XY)
15,298 17,21 18,53 27,4115
29,2744 30,101 31,413 33,71
34,98 35,68 37,54 39,3869
41,6684 42,970 43,2385 44,54
45,6976 46,798 47,894 48,74
49,62 50,165 51,364 52,213
53,1381 54,54 55,5341 56,374
57,1098 58,799 59,1482 60,994
61,769 62,69 63,62 64,1019
65,705 66,384 67,2759 68,396
69,549 70,69 71,1296 72,320
73,947 74,142 75,76 76,76
77,456 78,441 79,2456 80,76
81,8405 82,710 83,348 84,76
85,1285 86,329 87,1049 88,81
89,69 91,272 92,110 93,656
94,69 95,6070 96,617 97,414
98,69 99,1517 100,262 101,171
102,69 103,311 104,69 105,2691
106,236 107,264 109,150 110,52
111,205 112,52 113,1764 114,155
115,122 116,23 117,45 118,70
119,267 120,55 121,375 122,23
123,6530 124,859 125,123 126,23
127,1012 128,246 129,87 131,42
132,72 133,30 137,177 138,30
139,34 140,30 141,940 142,94
145,64 146,59 147,36 155,2261
156,282 157,122 159,32 160,56
161,88 171,26 173,1607 174,171
175,101 188,254 189,70 190,30
206,9999 207,1038 208,864 209,105
210,36
##END=
