##TITLE=Methyl stearate
##JCAMP-DX=4.24
##DATA TYPE=MASS SPECTRUM
##ORIGIN=NIST Mass Spectrometry Data Center, 1998.
##OWNER=NIST Mass Spectrometry Data Center
Collection (C) 2014 copyright by the U.S. Secretary of Commerce
on behalf of the United States of America. All rights reserved.
##CAS REGISTRY NO=112-61-8
##$NIST MASS SPEC NO=291013
##MOLFORM=C19 H38 O2
##MW=298
##$NIST SOURCE=MSDC
##XUNITS=M/Z
##YUNITS=RELATIVE INTENSITY
##XFACTOR=1
##YFACTOR=1
##FIRSTX=15
##LASTX=300
##FIRSTY=40
##MAXX=300
##MINX=15
##MAXY=9999
##MINY=10
##NPOINTS=160
##PEAK TABLE=(XY..XY)
15,40 26,10 27,200 29,620
30,20 31,20 33,10 38,10
39,270 40,60 41,2280 42,500
43,3380 44,130 45,100 51,10
52,10 53,170 54,210 55,3030
56,570 57,2020 58,140 59,930
60,40 61,20 65,30 66,20
67,370 68,170 69,1640 70,300
71,750 72,50 73,270 74,9999
75,2400 76,120 77,40 78,10
79,110 80,30 81,310 82,140
83,1080 84,400 85,400 86,10
87,7449 88,660 89,50 91,20
93,90 94,30 95,250 96,110
97,890 98,360 99,90 100,30
101,740 102,70 103,10 105,10
107,80 108,20 109,140 110,60
111,360 112,90 113,60 114,20
115,260 116,120 117,10 119,10
121,100 122,20 123,70 124,30
125,160 126,30 127,20 128,10
129,820 130,200 131,20 135,80
136,10 137,30 138,20 139,80
140,20 141,10 142,10 143,2350
144,240 145,20 149,60 150,10
151,10 152,10 153,50 154,10
155,10 156,10 157,310 158,40
163,30 164,10 165,10 166,10
167,30 168,10 171,160 172,40
177,20 180,10 181,20 182,10
185,390 186,80 187,10 191,10
195,10 196,10 199,940 200,140
201,20 205,10 209,10 213,340
214,60 215,10 219,10 222,20
223,10 224,20 225,10 227,120
228,30 237,10 241,250 242,50
243,10 247,10 248,10 255,1140
256,210 257,20 265,10 266,10
267,510 268,100 269,230 270,50
271,10 298,1400 299,310 300,40
##END=
