##TITLE=o-Dibenzoylbenzene
##JCAMP-DX=4.24
##DATA TYPE=MASS SPECTRUM
##ORIGIN=Chemical Concepts
##OWNER=NIST Mass Spectrometry Data Center
Collection (C) 2014 copyright by the U.S. Secretary of Commerce
on behalf of the United States of America. All rights reserved.
##CAS REGISTRY NO=1159-86-0
##$NIST MASS SPEC NO=163154
##MOLFORM=C20 H14 O2
##MW=286
##$NIST SOURCE=MSDC
##XUNITS=M/Z
##YUNITS=RELATIVE INTENSITY
##XFACTOR=1
##YFACTOR=1
##FIRSTX=26
##LASTX=289
##FIRSTY=8
##MAXX=289
##MINX=26
##MAXY=9999
##MINY=1
##NPOINTS=151
##PEAK TABLE=(XY..XY)
26,8 27,131 29,4 31,2
38,12 39,118 41,8 42,1
43,6 45,3 49,3 50,363
51,1609 52,80 53,21 56,3
57,5 58,3 62,21 63,90
64,13 65,30 67,2 69,2
70,1 71,5 73,2 74,90
75,175 76,547 77,6598 78,432
79,15 85,3 86,16 87,30
88,17 89,32 90,2 91,4
92,1 97,2 98,17 99,20
100,22 101,47 102,40 103,9
104,134 105,6445 106,444 107,29
108,3 110,4 111,6 112,2
113,34 114,10 115,15 120,2
121,7 122,3 123,1 125,16
126,115 127,174 128,20 132,15
134,6 135,1 136,1 137,5
138,5 139,15 142,3 143,10
149,22 150,89 151,411 152,1807
153,809 154,82 155,5 162,4
163,23 164,21 165,199 166,32
175,2 176,2 177,1 178,1
179,7 180,158 181,638 182,86
183,8 187,6 188,2 189,5
192,2 193,242 194,39 195,6
199,1 200,5 201,4 202,16
203,5 207,20 208,27 209,9999
210,1471 211,138 212,10 213,7
214,1 215,5 224,5 225,4
226,55 227,20 228,39 229,38
230,12 231,1 237,4 238,3
239,37 240,13 241,38 242,47
243,9 255,17 256,4 257,243
258,88 259,12 267,13 268,19
269,8 270,16 271,15 272,1
283,2 284,3 285,87 286,6305
287,1195 288,145 289,15
##END=
