##TITLE=Bis(2-butoxyethyl) phthalate
##JCAMP-DX=4.24
##DATA TYPE=MASS SPECTRUM
##ORIGIN=Japan AIST/NIMC Database- Spectrum MS-IW-1916
##OWNER=NIST Mass Spectrometry Data Center
Collection (C) 2014 copyright by the U.S. Secretary of Commerce
on behalf of the United States of America. All rights reserved.
##CAS REGISTRY NO=117-83-9
##$NIST MASS SPEC NO=227688
##MOLFORM=C20 H30 O6
##MW=366
##$NIST SOURCE=MSDC
##XUNITS=M/Z
##YUNITS=RELATIVE INTENSITY
##XFACTOR=1
##YFACTOR=1
##FIRSTX=15
##LASTX=368
##FIRSTY=70
##MAXX=368
##MINX=15
##MAXY=9999
##MINY=10
##NPOINTS=172
##PEAK TABLE=(XY..XY)
15,70 18,20 19,30 26,40
27,539 28,459 29,2889 30,90
31,159 32,10 37,10 38,20
39,339 40,40 41,3369 42,209
43,499 44,819 45,6399 46,149
47,10 50,329 51,119 52,60
53,70 54,30 55,1199 56,8259
57,9699 58,529 59,189 60,10
61,70 62,10 63,559 64,50
65,499 66,399 67,40 68,10
69,50 70,40 71,379 72,259
73,339 74,90 75,209 76,1329
77,399 78,40 79,30 81,10
82,40 83,499 84,109 85,6959
86,399 87,289 88,299 89,60
90,30 91,90 92,60 93,519
94,40 97,10 98,20 99,319
100,5549 101,8189 102,609 103,90
104,2499 105,1059 106,90 107,10
110,90 111,99 112,30 113,20
114,10 115,99 116,30 117,1569
118,349 119,639 120,50 121,509
122,269 123,50 127,10 128,90
129,90 130,10 131,70 132,1659
133,2399 134,269 135,80 136,20
145,20 146,90 147,99 148,969
149,9999 150,979 151,109 155,109
156,60 157,40 160,40 161,30
162,149 163,439 164,50 165,10
166,40 167,199 168,20 173,159
174,20 175,30 176,3459 177,779
178,289 179,90 180,10 185,10
186,10 187,10 191,179 192,30
193,4469 194,789 195,99 196,10
200,10 202,30 205,70 206,20
207,20 211,119 212,10 220,99
221,269 222,109 223,50 229,60
236,30 237,30 238,10 247,10
248,129 249,1549 250,569 251,80
252,10 264,70 265,269 266,109
267,139 268,20 273,20 274,30
291,10 293,319 294,1389 295,249
296,30 366,109 367,70 368,10
##END=
