##TITLE=Cetyl stearate
##JCAMP-DX=4.24
##DATA TYPE=MASS SPECTRUM
##ORIGIN=R.T.HOLMAN,UNIVERSITY OF MINNESOTA
##OWNER=NIST Mass Spectrometry Data Center
Collection (C) 2014 copyright by the U.S. Secretary of Commerce
on behalf of the United States of America. All rights reserved.
##CAS REGISTRY NO=1190-63-2
##$NIST MASS SPEC NO=36253
##MOLFORM=C34 H68 O2
##MW=508
##$NIST SOURCE=MSDC
##XUNITS=M/Z
##YUNITS=RELATIVE INTENSITY
##XFACTOR=1
##YFACTOR=1
##FIRSTX=26
##LASTX=511
##FIRSTY=60
##MAXX=511
##MINX=26
##MAXY=9999
##MINY=10
##NPOINTS=315
##PEAK TABLE=(XY..XY)
26,60 27,250 28,370 29,790
30,40 31,30 32,80 34,10
35,10 36,30 37,20 38,30
39,230 40,70 41,2300 42,740
43,6300 44,260 45,80 46,10
47,20 50,40 51,30 52,20
53,130 54,540 55,4400 56,2000
57,8000 58,430 59,110 60,900
61,1500 62,60 63,30 64,90
65,30 66,80 67,800 68,1200
69,4300 70,2100 71,5000 72,300
73,1700 74,180 75,40 76,20
77,40 78,30 79,120 80,100
81,720 82,2000 83,4700 84,2000
85,3300 86,250 87,440 88,70
89,60 90,10 91,50 92,20
93,80 94,70 95,610 96,1100
97,4100 98,1800 99,780 100,100
101,350 102,100 103,70 104,30
105,40 106,30 107,80 108,40
109,330 110,490 111,2400 112,1000
113,450 114,90 115,440 116,420
117,70 118,20 119,30 120,30
121,110 122,40 123,180 124,300
125,1300 126,630 127,300 128,60
129,1000 130,140 131,40 132,10
133,20 134,20 135,90 136,30
137,100 138,210 139,590 140,470
141,230 142,50 143,180 144,40
145,30 146,20 147,30 148,20
149,100 150,30 151,50 152,140
153,360 154,350 155,170 156,40
157,110 158,50 159,50 160,30
161,30 162,20 163,60 164,20
165,40 166,100 167,250 168,260
169,120 170,40 171,190 172,70
173,30 174,10 175,10 177,60
178,30 179,30 180,90 181,160
182,180 183,80 184,20 185,380
186,60 187,30 188,10 189,10
190,10 191,30 192,20 193,20
194,60 195,120 196,850 197,150
198,30 199,150 200,40 201,40
202,10 203,10 204,20 205,30
206,10 207,20 208,20 209,40
210,40 211,20 212,20 213,70
214,30 215,30 216,10 217,20
218,20 219,40 220,30 221,20
222,140 223,70 224,2400 225,600
226,90 227,120 228,40 229,40
230,20 233,10 234,10 235,10
236,20 237,20 238,20 239,40
240,20 241,490 242,100 243,30
244,10 245,10 246,20 247,50
248,40 249,20 250,10 251,20
252,10 253,20 254,20 255,110
256,50 257,100 258,30 259,10
262,10 263,10 264,120 265,130
266,70 267,1100 268,220 269,470
270,110 271,80 272,20 273,10
278,10 279,20 280,10 281,20
282,40 283,140 284,2200 285,9999
286,2100 287,240 288,30 289,10
293,10 294,10 295,20 296,10
297,100 298,40 299,60 300,20
301,10 309,10 310,20 311,30
312,20 313,40 314,10 321,10
322,20 323,10 324,10 325,40
326,20 327,10 335,10 336,10
337,10 339,20 340,70 341,20
342,10 352,10 353,40 354,20
355,10 364,10 365,10 366,10
379,10 380,10 381,10 395,10
396,10 409,10 410,10 423,10
424,10 436,10 437,10 438,10
451,10 452,10 465,20 466,10
467,10 479,10 480,20 481,10
490,10 494,20 495,10 508,1104
509,410 510,90 511,20
##END=
