##TITLE=N-(2-Chlorophenyl)-maleimide
##JCAMP-DX=4.24
##DATA TYPE=MASS SPECTRUM
##ORIGIN=Japan AIST/NIMC Database- Spectrum MS-NW-6295
##OWNER=NIST Mass Spectrometry Data Center
Collection (C) 2014 copyright by the U.S. Secretary of Commerce
on behalf of the United States of America. All rights reserved.
##CAS REGISTRY NO=1203-24-3
##$NIST MASS SPEC NO=234828
##MOLFORM=C10 H6 Cl N O2
##MW=207
##$NIST SOURCE=MSDC
##XUNITS=M/Z
##YUNITS=RELATIVE INTENSITY
##XFACTOR=1
##YFACTOR=1
##FIRSTX=12
##LASTX=210
##FIRSTY=10
##MAXX=210
##MINX=12
##MAXY=9999
##MINY=10
##NPOINTS=132
##PEAK TABLE=(XY..XY)
12,10 13,20 14,10 15,10
17,10 18,119 24,20 25,199
26,4069 27,269 28,189 29,60
35,20 36,50 37,549 38,759
39,1099 40,109 41,30 42,40
43,20 44,50 45,10 47,70
48,20 49,119 50,479 51,349
52,269 53,859 54,4549 55,199
56,10 57,139 58,40 60,50
61,259 62,569 63,1509 64,739
65,269 66,30 67,10 68,10
70,10 71,179 72,99 73,319
74,219 75,539 76,139 77,30
78,30 80,99 82,339 83,20
84,70 85,129 86,70 87,99
88,179 89,599 90,1689 91,139
92,30 93,149 94,10 96,30
97,60 98,159 99,119 100,70
101,70 102,299 103,30 104,10
110,10 111,299 112,20 113,90
114,40 115,80 116,639 117,60
118,20 119,10 120,10 121,10
123,40 124,129 125,799 126,129
127,299 128,149 129,20 136,10
137,1039 138,599 139,349 140,169
141,10 142,10 143,40 144,1439
145,119 146,10 150,70 151,349
152,70 153,549 154,50 155,139
156,10 162,159 163,229 164,60
165,80 166,20 171,10 172,9999
173,1149 174,99 175,10 178,179
179,70 180,60 181,10 206,10
207,2029 208,269 209,639 210,90
##END=
