##TITLE=Cyclopenta[g]-2-benzopyran, 1,3,4,6,7,8-hexahydro-4,6,6,7,8,8-hexamethyl-
##JCAMP-DX=4.24
##DATA TYPE=MASS SPECTRUM
##ORIGIN=NIST Mass Spectrometry Data Center
##OWNER=NIST Mass Spectrometry Data Center
Collection (C) 2014 copyright by the U.S. Secretary of Commerce
on behalf of the United States of America. All rights reserved.
##CAS REGISTRY NO=1222-05-5
##$NIST MASS SPEC NO=414264
##MOLFORM=C18 H26 O
##MW=258
##$NIST SOURCE=MSDC
##XUNITS=M/Z
##YUNITS=RELATIVE INTENSITY
##XFACTOR=1
##YFACTOR=1
##FIRSTX=27
##LASTX=260
##FIRSTY=30
##MAXX=260
##MINX=27
##MAXY=9999
##MINY=10
##NPOINTS=160
##PEAK TABLE=(XY..XY)
27,30 29,70 31,10 39,70
40,10 41,210 42,20 43,200
44,10 50,10 51,50 52,10
53,70 54,10 55,100 56,10
57,170 58,20 62,10 63,50
64,50 65,80 66,10 67,40
69,60 70,30 71,60 72,10
74,10 75,20 76,100 77,210
78,60 79,60 80,10 81,10
82,70 83,100 84,70 85,40
86,10 87,10 88,10 89,120
90,50 91,220 92,30 93,20
94,10 95,10 96,20 97,30
98,20 99,20 100,10 101,10
102,30 103,50 104,20 105,100
106,20 107,20 113,10 114,20
115,440 116,100 117,130 118,20
119,40 126,20 127,160 128,591
129,500 130,100 131,160 132,30
133,20 139,70 140,20 141,500
142,380 143,550 144,120 145,120
146,20 147,10 150,10 151,40
152,240 153,370 154,230 155,480
156,290 157,410 158,90 159,80
160,30 163,10 164,10 165,260
166,110 167,270 168,200 169,450
170,350 171,591 172,130 173,90
174,10 176,10 177,10 178,50
179,50 180,20 181,90 182,90
183,410 184,270 185,440 186,170
187,110 188,230 189,40 190,10
191,10 192,10 193,10 194,10
195,40 196,30 197,190 198,360
199,170 200,40 201,210 202,40
209,20 210,20 211,40 212,60
213,2482 214,470 215,110 216,20
224,10 225,30 226,10 227,170
228,350 229,80 230,10 242,30
243,9999 244,1822 245,170 246,10
257,120 258,2292 259,450 260,50
##END=
