##TITLE=Benzenamine, 4-phenoxy-
##JCAMP-DX=4.24
##DATA TYPE=MASS SPECTRUM
##ORIGIN=Japan AIST/NIMC Database- Spectrum MS-NW-7804
##OWNER=NIST Mass Spectrometry Data Center
Collection (C) 2014 copyright by the U.S. Secretary of Commerce
on behalf of the United States of America. All rights reserved.
##CAS REGISTRY NO=139-59-3
##$NIST MASS SPEC NO=236692
##MOLFORM=C12 H11 N O
##MW=185
##$NIST SOURCE=MSDC
##XUNITS=M/Z
##YUNITS=RELATIVE INTENSITY
##XFACTOR=1
##YFACTOR=1
##FIRSTX=12
##LASTX=187
##FIRSTY=10
##MAXX=187
##MINX=12
##MAXY=9999
##MINY=10
##NPOINTS=118
##PEAK TABLE=(XY..XY)
12,10 14,20 15,60 16,10
25,20 26,329 27,1109 28,1349
29,99 30,159 31,10 35,10
36,10 37,329 38,1019 39,3539
40,329 41,569 42,209 43,40
44,10 45,20 46,20 48,10
49,109 50,1569 51,4229 52,2189
53,3209 54,1129 55,129 56,10
57,20 60,20 61,209 62,599
63,1289 64,559 65,2119 66,439
67,50 68,20 69,10 70,10
71,10 73,70 74,399 75,299
76,299 77,2619 78,609 79,309
80,7899 81,569 82,30 83,30
85,10 86,20 87,40 88,30
89,119 90,99 91,169 92,189
93,80 94,40 95,10 98,10
99,10 100,10 101,40 102,149
103,159 104,60 105,70 106,30
107,30 108,8679 109,779 110,50
113,30 114,30 115,239 116,90
117,80 118,20 120,10 125,10
126,40 127,209 128,489 129,669
130,439 131,80 132,10 138,10
139,139 140,70 141,109 142,40
143,10 144,20 145,10 153,20
154,159 155,80 156,1339 157,429
158,60 159,40 169,10 170,10
182,30 183,70 184,219 185,9999
186,1419 187,129
##END=
