##TITLE=Cannabidiol
##JCAMP-DX=4.24
##DATA TYPE=MASS SPECTRUM
##ORIGIN=NIST Mass Spectrometry Data Center
##OWNER=NIST Mass Spectrometry Data Center
Collection (C) 2014 copyright by the U.S. Secretary of Commerce
on behalf of the United States of America. All rights reserved.
##CAS REGISTRY NO=13956-29-1
##$NIST MASS SPEC NO=352192
##MOLFORM=C21 H30 O2
##MW=314
##$NIST SOURCE=MSDC
##XUNITS=M/Z
##YUNITS=RELATIVE INTENSITY
##XFACTOR=1
##YFACTOR=1
##FIRSTX=27
##LASTX=316
##FIRSTY=100
##MAXX=316
##MINX=27
##MAXY=9999
##MINY=10
##NPOINTS=216
##PEAK TABLE=(XY..XY)
27,100 29,250 30,10 38,10
39,200 40,50 41,641 42,50
43,771 44,20 50,10 51,70
52,40 53,310 54,30 55,450
56,30 57,60 58,10 63,30
64,20 65,200 66,60 67,390
68,210 69,220 70,10 71,60
72,10 75,10 76,20 77,430
78,120 79,360 80,70 81,170
82,30 83,30 84,10 87,10
88,10 89,60 90,30 91,671
92,110 93,230 94,60 95,110
96,10 97,20 99,10 100,10
101,20 102,40 103,160 104,60
105,340 106,90 107,480 108,480
109,180 110,20 111,10 113,10
115,370 116,110 117,170 118,40
119,290 120,450 121,1131 122,150
123,190 124,70 125,10 126,20
127,130 128,360 129,210 130,50
131,220 132,70 133,140 134,150
135,80 136,90 137,150 138,40
139,30 140,10 141,150 142,70
143,80 144,80 145,160 146,80
147,380 148,90 149,100 150,60
151,30 152,180 153,80 154,30
155,50 156,20 157,130 158,60
159,330 160,180 161,250 162,50
163,40 164,30 165,120 166,70
167,30 168,30 169,40 170,20
171,100 172,80 173,240 174,1161
175,611 176,80 177,30 178,40
179,30 180,60 181,60 182,50
183,40 184,20 185,60 186,40
187,290 188,100 189,160 190,180
191,60 192,10 193,811 194,130
195,160 196,30 197,40 198,20
199,60 200,30 201,110 202,40
203,50 204,20 205,10 206,110
207,290 208,140 209,30 210,10
211,20 212,10 213,60 214,30
215,50 216,10 217,70 218,30
219,50 220,20 221,20 222,10
223,10 224,10 225,20 226,10
227,20 228,20 229,410 231,9999
232,1651 233,220 234,20 239,10
241,10 242,10 243,100 244,40
245,70 246,1251 247,210 248,20
255,10 256,10 257,50 258,120
259,80 260,10 269,10 270,20
271,180 272,50 273,10 281,10
283,10 285,20 286,50 287,10
297,20 298,10 299,200 300,50
301,10 314,661 315,150 316,20
##END=
