##TITLE=1,2,3-Propanetricarboxylic acid, 2-(acetyloxy)-, tris(2-ethylhexyl) ester
##JCAMP-DX=4.24
##DATA TYPE=MASS SPECTRUM
##ORIGIN=H. Fales, LC, NHLBI, NIH, Bethesda, MD 20892
##OWNER=NIST Mass Spectrometry Data Center
Collection (C) 2014 copyright by the U.S. Secretary of Commerce
on behalf of the United States of America. All rights reserved.
##CAS REGISTRY NO=144-15-0
##$NIST MASS SPEC NO=132392
##MOLFORM=C32 H58 O8
##MW=570
##$NIST SOURCE=MSDC
##XUNITS=M/Z
##YUNITS=RELATIVE INTENSITY
##XFACTOR=1
##YFACTOR=1
##FIRSTX=41
##LASTX=572
##FIRSTY=2744
##MAXX=572
##MINX=41
##MAXY=9999
##MINY=6
##NPOINTS=232
##PEAK TABLE=(XY..XY)
41,2744 42,281 43,7987 44,314
45,97 51,16 53,137 54,154
55,2252 56,1272 57,9999 58,406
59,43 60,89 61,268 65,21
67,233 68,223 69,1427 70,2492
71,6301 72,370 73,43 74,19
76,217 77,40 79,42 81,129
82,230 83,1056 84,659 85,285
86,70 87,100 88,9 89,32
93,15 95,83 96,40 97,173
98,73 99,69 100,37 101,196
102,638 103,318 104,6 105,168
107,6 108,17 109,9 110,238
111,526 112,2511 113,8180 114,661
115,75 116,43 117,7 119,19
123,8 124,9 125,55 126,74
127,205 129,3051 130,313 131,234
132,246 133,54 134,6 136,19
139,402 140,174 141,126 142,120
143,85 144,121 145,43 147,8668
148,490 149,119 150,6 151,9
153,9 154,181 155,52 157,1063
158,327 159,226 160,149 161,102
162,20 167,6 169,36 170,21
171,120 172,136 173,162 174,184
175,2193 176,150 177,124 178,7
181,6 183,22 184,7 185,169
186,19 187,7 188,124 189,98
190,429 191,122 193,778 194,45
195,10 196,7 197,22 199,87
200,6 201,18 206,43 207,53
211,23 212,6 213,17 214,178
215,66 217,3942 218,302 219,66
222,7 224,7 225,10 227,16
228,12 229,37 230,85 231,54
232,9 235,227 236,9 239,8
241,1527 242,229 243,74 245,40
257,34 259,3387 260,465 261,69
263,20 268,71 269,125 270,99
271,55 272,25 273,43 284,11
285,30 286,134 287,527 288,84
289,65 299,7 301,32 302,438
303,150 304,21 305,256 306,39
315,7 329,1274 330,222 331,40
341,15 343,18 347,355 348,59
349,7 353,9 354,37 355,31
356,10 357,38 361,16 369,18
371,9866 372,2478 373,392 374,49
380,9 382,47 383,10 385,32
398,98 399,269 400,74 401,116
402,27 413,289 414,2925 415,787
416,152 417,557 418,134 419,18
441,162 442,79 443,20 457,6
459,3809 460,1037 461,206 462,25
473,8 481,7 487,51 488,6
510,97 511,162 512,55 513,30
528,40 529,51 530,7 568,12
569,65 570,446 571,157 572,35
##END=
