##TITLE=4-t-Butylbenzenesulfonyl chloride
##JCAMP-DX=4.24
##DATA TYPE=MASS SPECTRUM
##ORIGIN=NIST Mass Spectrometry Data Center, 1994
##OWNER=NIST Mass Spectrometry Data Center
Collection (C) 2014 copyright by the U.S. Secretary of Commerce
on behalf of the United States of America. All rights reserved.
##CAS REGISTRY NO=15084-51-2
##$NIST MASS SPEC NO=134935
##MOLFORM=C10 H13 Cl O2 S
##MW=232
##$NIST SOURCE=MSDC
##XUNITS=M/Z
##YUNITS=RELATIVE INTENSITY
##XFACTOR=1
##YFACTOR=1
##FIRSTX=15
##LASTX=236
##FIRSTY=1145
##MAXX=236
##MINX=15
##MAXY=9999
##MINY=16
##NPOINTS=129
##PEAK TABLE=(XY..XY)
15,1145 16,65 18,55 26,163
27,1218 28,403 29,999 32,16
35,104 36,122 37,79 38,285
39,2255 40,280 41,2323 42,115
43,70 44,30 45,166 48,493
50,1311 51,1733 52,448 53,367
54,50 55,409 56,30 57,1170
58,1297 59,155 61,61 62,294
63,1111 64,410 65,1129 66,141
67,96 69,164 70,44 71,38
73,102 74,489 75,625 76,858
77,2711 78,1002 79,437 81,36
82,93 83,156 84,50 85,58
86,68 87,163 88,36 89,1111
90,1096 91,3227 92,337 93,241
94,51 95,39 97,32 98,40
99,101 101,228 102,760 103,1186
104,234 105,1160 106,541 107,90
108,37 109,48 111,31 113,72
115,2130 116,579 117,2387 118,3450
119,400 120,42 121,69 122,36
123,41 124,31 125,1845 126,179
127,645 128,122 129,45 131,107
133,1724 134,477 135,114 137,68
138,243 139,79 140,36 141,71
151,150 153,401 154,67 155,118
156,43 166,184 167,69 177,28
181,145 182,36 183,57 189,1594
190,139 191,541 192,49 197,1018
198,127 199,54 201,35 217,9999
218,1105 219,3535 220,381 221,164
232,1108 233,144 234,375 235,40
236,28
##END=
