##TITLE=N,N,N',N'-Tetraethylterephthalamide
##JCAMP-DX=4.24
##DATA TYPE=MASS SPECTRUM
##ORIGIN=NIST Mass Spectrometry Data Center, 1994
##OWNER=NIST Mass Spectrometry Data Center
Collection (C) 2014 copyright by the U.S. Secretary of Commerce
on behalf of the United States of America. All rights reserved.
##CAS REGISTRY NO=15394-30-6
##$NIST MASS SPEC NO=135490
##MOLFORM=C16 H24 N2 O2
##MW=276
##$NIST SOURCE=MSDC
##XUNITS=M/Z
##YUNITS=RELATIVE INTENSITY
##XFACTOR=1
##YFACTOR=1
##FIRSTX=15
##LASTX=278
##FIRSTY=212
##MAXX=278
##MINX=15
##MAXY=9999
##MINY=4
##NPOINTS=101
##PEAK TABLE=(XY..XY)
15,212 17,38 18,265 26,111
27,883 28,1081 29,2662 30,341
38,16 39,75 40,42 41,149
42,1172 43,104 44,916 45,4
50,618 51,302 52,92 53,41
54,52 55,4 56,608 57,64
58,246 63,56 64,28 65,105
66,149 67,24 68,26 70,252
72,1111 73,57 74,292 75,661
76,2553 77,1061 78,140 79,160
80,59 88,178 89,58 90,114
91,206 92,57 93,138 95,229
100,132 103,1303 104,4046 105,3171
106,271 107,41 108,25 109,156
110,18 116,87 117,67 118,214
119,300 120,126 121,52 123,122
124,21 130,152 132,1027 133,389
134,59 138,27 145,34 146,225
147,440 148,323 149,68 160,954
161,203 162,45 163,36 174,387
175,548 176,714 177,418 178,57
188,22 191,355 192,46 202,110
204,9999 205,1766 206,204 219,179
233,91 247,840 248,165 261,49
273,21 275,4389 276,2746 277,444
278,44
##END=
