##TITLE=Benzene, (triethoxymethyl)-
##JCAMP-DX=4.24
##DATA TYPE=MASS SPECTRUM
##ORIGIN=Japan AIST/NIMC Database- Spectrum MS-NW-7578
##OWNER=NIST Mass Spectrometry Data Center
Collection (C) 2014 copyright by the U.S. Secretary of Commerce
on behalf of the United States of America. All rights reserved.
##CAS REGISTRY NO=1663-61-2
##$NIST MASS SPEC NO=238309
##MOLFORM=C13 H20 O3
##MW=224
##$NIST SOURCE=MSDC
##XUNITS=M/Z
##YUNITS=RELATIVE INTENSITY
##XFACTOR=1
##YFACTOR=1
##FIRSTX=13
##LASTX=181
##FIRSTY=10
##MAXX=181
##MINX=13
##MAXY=9999
##MINY=10
##NPOINTS=117
##PEAK TABLE=(XY..XY)
13,10 14,40 15,139 16,10
17,10 18,30 19,10 25,20
26,139 27,849 28,239 29,2069
30,70 31,499 32,10 37,10
38,30 39,119 40,10 41,40
42,40 43,179 44,109 45,439
46,70 47,109 49,10 50,339
51,1309 52,159 53,50 55,10
56,10 57,10 59,80 62,20
63,829 64,30 65,109 66,30
67,10 69,20 73,20 74,99
75,129 76,259 77,4649 78,489
79,3539 80,249 81,10 89,10
91,649 92,50 93,30 94,40
95,60 96,10 99,10 100,30
101,10 102,10 103,30 104,70
105,6639 106,689 107,239 108,30
109,10 110,10 111,10 113,10
118,10 119,359 120,20 121,40
122,1169 123,9839 124,789 125,70
126,10 127,20 128,20 129,10
130,10 131,10 132,50 133,50
134,10 135,80 136,10 137,10
139,20 140,10 141,50 142,10
143,20 146,10 147,699 148,60
149,99 150,439 151,3879 152,419
153,30 156,10 162,10 163,10
165,10 169,60 171,20 172,10
177,30 178,20 179,9999 180,1239
181,129
##END=
