##TITLE=1,11-Dibromoundecane
##JCAMP-DX=4.24
##DATA TYPE=MASS SPECTRUM
##ORIGIN=Chemical Concepts
##OWNER=NIST Mass Spectrometry Data Center
Collection (C) 2014 copyright by the U.S. Secretary of Commerce
on behalf of the United States of America. All rights reserved.
##CAS REGISTRY NO=16696-65-4
##$NIST MASS SPEC NO=163848
##MOLFORM=C11 H22 Br2
##MW=312
##$NIST SOURCE=MSDC
##XUNITS=M/Z
##YUNITS=RELATIVE INTENSITY
##XFACTOR=1
##YFACTOR=1
##FIRSTX=26
##LASTX=317
##FIRSTY=88
##MAXX=317
##MINX=26
##MAXY=9999
##MINY=4
##NPOINTS=121
##PEAK TABLE=(XY..XY)
26,88 27,2222 28,416 29,2647
30,67 38,19 39,1320 40,272
41,7171 42,1144 43,5399 44,174
46,6 47,6 50,27 51,53
52,36 53,592 54,426 55,9999
56,911 57,6358 58,227 59,43
60,8 63,21 65,68 66,34
67,645 68,357 69,6178 70,554
71,4466 72,254 73,9 75,4
77,47 79,65 80,17 81,282
82,179 83,3543 84,317 85,3540
86,211 87,4 88,10 91,18
92,6 93,85 95,116 96,45
97,3493 98,251 99,362 100,30
105,11 106,21 107,501 108,51
109,413 110,18 111,1025 112,93
113,37 114,5 119,32 120,16
121,233 122,12 123,209 124,8
125,16 127,4 129,4 133,17
134,47 135,2982 136,180 137,2714
138,85 140,6 147,19 148,185
149,615 150,201 151,699 152,29
153,284 154,17 161,16 162,99
163,634 164,112 165,589 166,43
175,13 176,11 177,797 178,54
179,778 180,68 189,6 190,6
191,421 192,30 193,401 194,46
204,7 206,5 232,9 233,1519
234,183 235,1383 236,195 312,98
313,14 314,194 315,24 316,129
317,13
##END=
