##TITLE=Phenothiazine-10-propionitrile
##JCAMP-DX=4.24
##DATA TYPE=MASS SPECTRUM
##ORIGIN=Japan AIST/NIMC Database- Spectrum MS-IW-5512
##OWNER=NIST Mass Spectrometry Data Center
Collection (C) 2014 copyright by the U.S. Secretary of Commerce
on behalf of the United States of America. All rights reserved.
##CAS REGISTRY NO=1698-80-2
##$NIST MASS SPEC NO=242510
##MOLFORM=C15 H12 N2 S
##MW=252
##$NIST SOURCE=MSDC
##XUNITS=M/Z
##YUNITS=RELATIVE INTENSITY
##XFACTOR=1
##YFACTOR=1
##FIRSTX=25
##LASTX=255
##FIRSTY=20
##MAXX=255
##MINX=25
##MAXY=9999
##MINY=10
##NPOINTS=169
##PEAK TABLE=(XY..XY)
25,20 26,359 27,90 37,30
38,60 39,209 40,10 41,10
44,10 45,279 47,10 50,189
51,409 52,549 53,719 54,40
57,10 58,60 61,20 62,70
63,279 64,90 65,179 66,20
69,429 70,90 71,80 72,20
73,20 74,90 75,129 76,149
77,429 78,99 79,90 80,20
81,30 82,119 83,199 84,129
85,90 86,129 87,50 88,40
89,129 90,149 91,80 92,129
93,179 94,40 95,99 96,60
97,10 98,369 99,689 100,119
101,90 102,80 103,30 104,20
105,439 106,1079 107,70 108,179
109,189 110,20 111,50 112,20
113,70 114,70 115,99 116,60
117,20 119,10 120,40 121,50
122,40 124,10 125,40 126,459
127,429 128,249 129,30 130,10
132,10 133,10 134,60 135,20
136,30 137,20 138,70 139,429
140,339 141,70 145,60 146,60
147,20 148,20 150,30 151,179
152,459 153,349 154,979 155,189
156,20 157,10 158,30 159,60
160,20 164,139 165,129 166,1169
167,2579 168,379 169,60 170,90
171,419 172,159 173,70 174,10
176,10 177,60 178,339 179,819
180,3879 181,559 182,50 183,99
184,239 185,90 186,20 190,20
191,20 192,20 193,10 194,10
195,20 196,339 197,599 198,6529
199,7989 200,1359 201,419 202,40
208,10 209,50 210,189 211,149
212,9999 213,1539 214,559 215,70
216,10 217,10 218,10 219,30
222,10 223,50 224,40 225,30
226,20 248,10 249,20 250,20
251,70 252,8359 253,1509 254,489
255,70
##END=
