##TITLE=Chrysene, 6-methyl-
##JCAMP-DX=4.24
##DATA TYPE=MASS SPECTRUM
##ORIGIN=NIST Mass Spectrometry Data Center, 1990.
##OWNER=NIST Mass Spectrometry Data Center
Collection (C) 2014 copyright by the U.S. Secretary of Commerce
on behalf of the United States of America. All rights reserved.
##CAS REGISTRY NO=1705-85-7
##$NIST MASS SPEC NO=118475
##MOLFORM=C19 H14
##MW=242
##$NIST SOURCE=MSDC
##XUNITS=M/Z
##YUNITS=RELATIVE INTENSITY
##XFACTOR=1
##YFACTOR=1
##FIRSTX=16
##LASTX=244
##FIRSTY=3
##MAXX=244
##MINX=16
##MAXY=9999
##MINY=3
##NPOINTS=101
##PEAK TABLE=(XY..XY)
16,3 17,27 18,98 27,88
28,146 31,20 32,23 39,91
50,71 51,63 52,28 62,71
63,133 74,103 75,74 76,47
77,42 78,19 79,34 80,67
81,75 85,22 86,73 87,131
88,73 89,42 93,310 94,544
98,72 99,74 100,158 101,106
102,27 106,679 107,439 110,43
111,66 112,184 113,434 115,35
120,1779 121,1001 123,25 124,18
126,33 134,24 135,21 137,40
139,37 149,31 150,83 151,53
152,31 161,28 162,35 163,113
164,45 165,96 166,16 174,47
175,47 176,51 177,27 185,28
186,49 187,183 188,57 189,167
190,32 198,42 199,52 200,111
201,75 202,129 203,34 207,9
210,19 211,126 212,76 213,388
214,146 215,594 216,131 222,36
223,47 224,199 225,181 226,893
227,285 228,40 234,23 235,79
236,107 237,632 238,463 239,3374
240,1440 241,3729 242,9999 243,1894
244,174
##END=
