##TITLE=4,4'-Ditolyl sulfoxide
##JCAMP-DX=4.24
##DATA TYPE=MASS SPECTRUM
##ORIGIN=G.W.A. MILNE
##OWNER=NIST Mass Spectrometry Data Center
Collection (C) 2014 copyright by the U.S. Secretary of Commerce
on behalf of the United States of America. All rights reserved.
##CAS REGISTRY NO=1774-35-2
##$NIST MASS SPEC NO=28003
##MOLFORM=C14 H14 O S
##MW=230
##$NIST SOURCE=MSDC
##XUNITS=M/Z
##YUNITS=RELATIVE INTENSITY
##XFACTOR=1
##YFACTOR=1
##FIRSTX=26
##LASTX=232
##FIRSTY=100
##MAXX=232
##MINX=26
##MAXY=9999
##MINY=100
##NPOINTS=97
##PEAK TABLE=(XY..XY)
26,100 27,500 28,200 29,100
38,300 39,2800 40,300 41,900
42,100 43,100 44,100 45,2200
46,100 47,100 50,400 51,1200
52,400 53,500 62,500 63,2000
64,500 65,4600 66,400 67,500
69,400 70,100 71,200 74,200
75,400 76,200 77,3200 78,1200
79,3500 80,300 89,1700 90,1000
91,5699 92,800 93,100 95,200
96,100 97,200 105,500 106,300
107,5099 108,1600 109,200 110,200
111,800 112,100 121,700 122,1400
123,9499 124,3900 125,800 126,200
127,100 128,100 129,100 138,100
139,2300 140,200 141,300 142,100
149,100 152,400 153,300 154,100
165,1100 166,600 167,2400 168,300
169,100 178,200 179,100 180,200
181,1900 182,9999 183,1500 184,700
185,200 187,300 197,500 198,800
199,700 200,200 201,200 202,100
211,200 212,200 213,500 214,3100
215,500 216,200 230,5799 231,1000
232,300
##END=
