##TITLE=Benzene, 1,3,5-trichloro-2-nitro-
##JCAMP-DX=4.24
##DATA TYPE=MASS SPECTRUM
##ORIGIN=Japan AIST/NIMC Database- Spectrum MS-NW-1416
##OWNER=NIST Mass Spectrometry Data Center
Collection (C) 2014 copyright by the U.S. Secretary of Commerce
on behalf of the United States of America. All rights reserved.
##CAS REGISTRY NO=18708-70-8
##$NIST MASS SPEC NO=233583
##MOLFORM=C6 H2 Cl3 N O2
##MW=225
##$NIST SOURCE=MSDC
##XUNITS=M/Z
##YUNITS=RELATIVE INTENSITY
##XFACTOR=1
##YFACTOR=1
##FIRSTX=12
##LASTX=232
##FIRSTY=40
##MAXX=232
##MINX=12
##MAXY=9999
##MINY=10
##NPOINTS=157
##PEAK TABLE=(XY..XY)
12,40 14,20 16,50 18,10
24,30 25,70 26,40 27,20
28,469 29,10 30,7789 31,30
32,20 35,239 36,549 37,1439
38,469 39,20 43,20 44,70
46,339 47,409 48,199 49,659
50,449 51,109 52,20 53,30
54,199 55,70 59,30 60,459
61,969 62,719 63,139 64,30
65,50 66,20 67,10 71,349
72,759 73,2649 74,6059 75,549
76,50 77,10 82,20 83,789
84,2889 85,679 86,1039 87,309
88,179 89,20 90,20 94,80
95,149 96,289 97,1279 98,289
99,389 100,60 106,139 107,1439
108,3469 109,5099 110,1469 111,1569
112,119 113,10 114,10 116,10
117,30 118,359 119,499 120,259
121,329 122,99 123,70 124,40
125,80 126,20 127,30 130,10
131,159 132,289 133,119 134,189
135,30 136,30 141,40 142,70
143,6079 144,3279 145,4089 146,2119
147,749 148,349 149,20 153,30
155,40 156,10 157,10 158,149
159,30 160,389 161,50 162,229
163,20 164,50 165,10 166,10
167,7479 168,429 169,7289 170,409
171,2379 172,119 173,269 174,20
175,10 178,60 179,5319 180,409
181,5129 182,379 183,1609 184,119
185,179 186,10 189,10 191,10
193,10 194,10 195,9999 196,679
197,9669 198,629 199,3149 200,219
201,349 202,20 209,519 210,40
211,509 212,40 213,169 214,10
215,20 225,9159 226,649 227,8859
228,629 229,2839 230,199 231,319
232,20
##END=
