##TITLE=Phenothiazine-10-carbonyl chloride
##JCAMP-DX=4.24
##DATA TYPE=MASS SPECTRUM
##ORIGIN=NIST Mass Spectrometry Data Center, 1994
##OWNER=NIST Mass Spectrometry Data Center
Collection (C) 2014 copyright by the U.S. Secretary of Commerce
on behalf of the United States of America. All rights reserved.
##CAS REGISTRY NO=18956-87-1
##$NIST MASS SPEC NO=134342
##MOLFORM=C13 H8 Cl N O S
##MW=261
##$NIST SOURCE=MSDC
##XUNITS=M/Z
##YUNITS=RELATIVE INTENSITY
##XFACTOR=1
##YFACTOR=1
##FIRSTX=26
##LASTX=266
##FIRSTY=28
##MAXX=266
##MINX=26
##MAXY=9999
##MINY=1
##NPOINTS=135
##PEAK TABLE=(XY..XY)
26,28 27,47 28,41 35,23
36,15 37,59 38,125 39,247
40,8 45,359 46,9 47,20
50,367 51,187 52,56 53,6
54,6 57,35 58,66 59,6
61,42 62,129 63,651 64,109
65,145 66,6 69,464 70,103
71,77 73,28 74,154 75,173
76,175 77,151 78,65 79,8
81,59 82,134 83,22 84,17
85,42 87,35 88,42 89,53
90,33 91,13 93,83 94,49
95,107 96,48 97,12 99,200
101,70 102,53 103,21 104,11
105,9 106,21 107,22 108,105
109,26 110,9 111,8 112,9
113,51 114,40 115,55 116,34
117,12 118,9 119,15 120,40
121,28 122,63 123,8 124,6
125,31 126,113 127,391 128,247
129,26 130,8 132,12 133,11
134,22 135,1 136,6 137,25
138,51 139,145 140,223 141,31
144,12 145,56 146,61 147,14
148,10 152,93 153,219 154,808
155,105 156,9 158,17 159,53
160,9 161,5 164,109 165,62
166,330 167,56 169,60 170,105
171,407 172,144 173,36 174,9
183,25 184,9 194,4 196,388
198,9999 199,1596 200,599 201,73
202,6 209,4 226,25 227,4
232,9 261,2184 262,358 263,843
264,123 265,40 266,4
##END=
