##TITLE=Hexadecanedioic acid, dimethyl ester
##JCAMP-DX=4.24
##DATA TYPE=MASS SPECTRUM
##ORIGIN=NIST Mass Spectrometry Data Center
##OWNER=NIST Mass Spectrometry Data Center
Collection (C) 2014 copyright by the U.S. Secretary of Commerce
on behalf of the United States of America. All rights reserved.
##CAS REGISTRY NO=19102-90-0
##$NIST MASS SPEC NO=332736
##MOLFORM=C18 H34 O4
##MW=314
##$NIST SOURCE=MSDC
##XUNITS=M/Z
##YUNITS=RELATIVE INTENSITY
##XFACTOR=1
##YFACTOR=1
##FIRSTX=15
##LASTX=285
##FIRSTY=120
##MAXX=285
##MINX=15
##MAXY=9999
##MINY=10
##NPOINTS=214
##PEAK TABLE=(XY..XY)
15,120 26,10 27,240 28,100
29,681 30,30 31,90 33,20
38,10 39,400 40,100 41,3163
42,741 43,3763 44,130 45,370
46,10 47,10 48,10 50,10
51,20 52,20 53,350 54,480
55,7697 56,871 57,1872 58,230
59,3183 60,110 61,40 64,10
65,80 66,50 67,1171 68,520
69,3553 70,480 71,651 72,70
73,591 74,6526 75,550 76,40
77,70 78,40 79,390 80,290
81,1271 82,520 83,2813 84,4204
85,691 87,3393 88,370 89,30
90,10 91,120 92,40 93,420
94,470 95,1181 96,901 97,2662
98,9999 99,931 100,110 101,581
102,60 103,10 104,10 105,80
106,30 107,430 108,490 109,901
110,470 111,1541 112,3273 113,460
114,130 115,420 116,160 117,30
118,10 119,120 120,60 121,741
122,270 123,550 124,330 125,831
126,891 127,210 128,110 129,340
130,300 131,50 132,20 133,140
134,100 135,671 136,180 137,300
138,230 139,410 140,500 141,190
142,50 143,340 144,430 145,50
146,10 147,90 148,130 149,430
150,150 151,200 152,260 153,280
154,781 155,130 156,50 157,190
158,370 159,50 160,10 161,40
162,20 163,80 164,90 165,110
166,280 167,330 168,601 169,90
170,30 171,140 172,130 173,20
174,10 175,30 176,20 177,30
178,40 179,80 180,110 181,80
182,80 183,30 184,60 185,120
186,60 187,10 188,10 189,40
190,80 191,591 192,90 193,40
194,50 195,30 196,20 197,30
198,80 199,130 200,40 201,10
203,10 204,20 205,90 206,30
207,50 208,360 209,791 210,130
211,30 212,10 213,20 214,20
215,10 221,20 222,170 223,80
224,10 225,10 226,170 227,50
228,110 229,10 231,10 232,20
233,10 238,10 239,40 240,60
241,1191 242,190 243,20 249,50
250,290 251,80 252,10 254,30
255,10 256,20 264,10 267,10
271,10 281,10 282,100 283,1591
284,320 285,40
##END=
