##TITLE=4-t-Butylphenyl isothiocyanate
##JCAMP-DX=4.24
##DATA TYPE=MASS SPECTRUM
##ORIGIN=NIST Mass Spectrometry Data Center, 1994
##OWNER=NIST Mass Spectrometry Data Center
Collection (C) 2014 copyright by the U.S. Secretary of Commerce
on behalf of the United States of America. All rights reserved.
##CAS REGISTRY NO=19241-24-8
##$NIST MASS SPEC NO=134978
##MOLFORM=C11 H13 N S
##MW=191
##$NIST SOURCE=MSDC
##XUNITS=M/Z
##YUNITS=RELATIVE INTENSITY
##XFACTOR=1
##YFACTOR=1
##FIRSTX=14
##LASTX=193
##FIRSTY=58
##MAXX=193
##MINX=14
##MAXY=9999
##MINY=22
##NPOINTS=115
##PEAK TABLE=(XY..XY)
14,58 15,396 26,98 27,601
28,433 29,453 32,122 37,56
38,200 39,1650 40,56 41,2334
42,115 43,34 44,134 45,269
50,633 51,1032 52,233 53,187
54,28 55,107 56,23 57,168
58,115 59,131 61,95 62,202
63,733 64,295 65,310 66,80
69,94 70,153 71,53 72,51
73,23 74,395 75,519 76,401
77,1589 78,420 79,104 80,129
82,61 83,82 84,56 85,42
87,250 88,477 89,637 90,481
91,507 92,67 93,45 94,34
95,58 96,59 98,28 99,26
100,29 101,284 102,826 103,416
104,276 105,63 106,22 107,69
108,66 109,219 110,28 113,35
115,865 116,718 117,691 118,534
119,67 120,45 121,215 122,63
123,26 127,61 128,131 129,42
130,62 131,25 132,81 133,138
134,136 135,259 136,1915 137,198
138,85 140,50 142,412 143,733
144,216 145,41 146,34 147,25
148,3906 149,445 150,220 159,61
160,255 161,197 162,85 174,59
176,9999 177,1248 178,501 179,66
191,3812 192,539 193,195
##END=
