##TITLE=Acetic acid, (2,4-dichlorophenoxy)-, 2-butoxyethyl ester
##JCAMP-DX=4.24
##DATA TYPE=MASS SPECTRUM
##ORIGIN=NIST Mass Spectrometry Data Center, 1998.
##OWNER=NIST Mass Spectrometry Data Center
Collection (C) 2014 copyright by the U.S. Secretary of Commerce
on behalf of the United States of America. All rights reserved.
##CAS REGISTRY NO=1929-73-3
##$NIST MASS SPEC NO=291800
##MOLFORM=C14 H18 Cl2 O4
##MW=320
##$NIST SOURCE=MSDC
##XUNITS=M/Z
##YUNITS=RELATIVE INTENSITY
##XFACTOR=1
##YFACTOR=1
##FIRSTX=14
##LASTX=325
##FIRSTY=20
##MAXX=325
##MINX=14
##MAXY=9999
##MINY=10
##NPOINTS=197
##PEAK TABLE=(XY..XY)
14,20 15,60 16,10 26,60
27,650 28,380 29,2240 30,100
31,200 35,10 36,10 37,40
38,60 39,430 40,10 41,3530
42,1290 43,880 44,650 45,1800
46,40 47,20 49,40 50,200
51,130 52,20 53,100 54,30
55,590 56,4130 57,9999 58,480
59,70 60,30 61,100 62,220
63,650 64,40 65,30 66,10
67,20 69,40 70,20 71,260
72,190 73,640 74,510 75,870
76,100 77,220 78,20 79,20
82,10 83,110 84,130 85,2460
86,1470 87,780 88,60 89,140
90,10 91,30 92,10 93,10
94,10 95,10 96,20 97,160
98,180 99,150 100,610 101,350
102,40 103,700 104,30 105,30
106,10 107,100 108,20 109,1180
110,370 111,1590 112,410 113,450
114,100 115,30 117,40 118,10
119,20 120,10 121,10 123,90
124,60 126,110 127,40 128,70
129,20 130,20 131,10 133,660
134,50 135,410 136,30 137,70
138,20 139,130 140,60 141,210
142,30 143,60 144,50 145,2170
146,240 147,1410 148,140 149,390
150,40 151,30 153,10 154,10
155,30 156,20 157,20 158,20
159,80 160,30 161,460 162,1480
163,380 164,940 165,120 166,160
167,140 168,30 169,50 170,10
171,10 173,150 175,2530 176,310
177,1610 178,200 179,270 180,30
183,10 184,10 185,140 186,20
187,50 188,10 189,20 190,10
191,10 193,10 195,10 199,40
200,10 201,20 202,40 203,10
204,30 205,10 206,10 211,40
212,300 213,200 214,110 215,60
216,10 220,3150 221,300 222,2020
223,190 224,340 225,30 229,10
234,20 236,10 246,40 247,510
248,120 249,330 250,70 251,60
252,10 264,70 265,10 266,40
267,10 268,10 285,10 320,1290
321,210 322,830 323,130 324,150
325,20
##END=
