##TITLE=1-Bromo-2,4,6-trichlorobenzene
##JCAMP-DX=4.24
##DATA TYPE=MASS SPECTRUM
##ORIGIN=NIST Mass Spectrometry Data Center, 1994
##OWNER=NIST Mass Spectrometry Data Center
Collection (C) 2014 copyright by the U.S. Secretary of Commerce
on behalf of the United States of America. All rights reserved.
##CAS REGISTRY NO=19393-96-5
##$NIST MASS SPEC NO=134954
##MOLFORM=C6 H2 Br Cl3
##MW=258
##$NIST SOURCE=MSDC
##XUNITS=M/Z
##YUNITS=RELATIVE INTENSITY
##XFACTOR=1
##YFACTOR=1
##FIRSTX=12
##LASTX=266
##FIRSTY=49
##MAXX=266
##MINX=12
##MAXY=9999
##MINY=27
##NPOINTS=97
##PEAK TABLE=(XY..XY)
12,49 25,71 28,27 35,426
36,478 37,1323 38,412 47,331
48,214 49,746 50,220 54,296
60,410 61,558 62,285 72,1037
73,2397 74,3436 75,247 76,44
77,49 78,44 79,300 80,44
81,310 82,65 83,156 84,1237
85,182 86,380 87,53 90,388
94,138 95,140 96,137 97,152
98,54 99,36 106,125 107,235
108,1703 109,2037 110,632 111,714
112,208 113,68 114,34 116,72
117,54 118,204 119,149 120,106
121,88 128,124 129,422 130,843
131,513 132,150 133,38 140,62
141,31 143,1405 144,1267 145,1001
146,796 147,198 148,116 151,41
152,98 153,85 154,53 155,35
164,53 179,3571 180,374 181,3374
182,291 183,1083 184,78 185,129
187,73 188,36 189,65 190,51
211,45 223,199 224,40 225,281
227,121 258,5095 260,9999 261,852
262,6744 263,467 264,1700 265,129
266,152
##END=
