##TITLE=Phenanthrene, 1,2,3,4,4a,9,10,10a-octahydro-1,1,4a-trimethyl-7-(1-methylethyl)-, (4aS-trans)-
##JCAMP-DX=4.24
##DATA TYPE=MASS SPECTRUM
##OWNER=NIST Mass Spectrometry Data Center
Collection (C) 2014 copyright by the U.S. Secretary of Commerce
on behalf of the United States of America. All rights reserved.
##CAS REGISTRY NO=19407-28-4
##$NIST MASS SPEC NO=13061
##MOLFORM=C20 H30
##MW=270
##$NIST SOURCE=MSDC
##XUNITS=M/Z
##YUNITS=RELATIVE INTENSITY
##XFACTOR=1
##YFACTOR=1
##FIRSTX=15
##LASTX=272
##FIRSTY=200
##MAXX=272
##MINX=15
##MAXY=9999
##MINY=20
##NPOINTS=120
##PEAK TABLE=(XY..XY)
15,200 17,20 27,160 28,200
29,400 34,40 36,200 38,20
41,20 42,100 43,2402 44,500
55,100 56,100 57,701 58,1001
59,100 60,40 67,20 69,1361
70,200 71,400 81,300 82,200
83,701 84,160 85,540 91,20
94,100 95,601 97,701 98,100
99,200 109,400 110,200 111,601
112,160 113,100 117,160 119,40
121,20 122,40 123,240 124,160
125,400 126,40 127,100 129,160
130,400 131,100 132,440 133,200
134,160 135,100 136,100 137,400
138,100 139,200 140,40 141,40
143,200 145,140 147,200 148,40
149,100 150,20 151,200 153,100
155,100 157,200 159,3203 160,500
161,100 163,100 165,160 167,100
169,100 171,300 173,3243 174,440
175,20 177,100 178,40 179,100
180,20 183,100 185,1601 186,400
187,240 191,40 193,100 197,40
198,100 199,601 200,200 201,140
202,300 204,20 207,200 209,20
211,20 213,500 214,20 218,100
227,360 228,40 240,40 241,200
242,240 243,200 247,100 254,100
255,9999 256,2002 257,200 268,140
269,100 270,3403 271,741 272,100
##END=
