##TITLE=1-Naphthalenol, 1,2,3,4,4a,7,8,8a-octahydro-1,6-dimethyl-4-(1-methylethyl)-, [1R-(1.alpha.,4.beta.,4a.beta.,8a.beta.)]-
##JCAMP-DX=4.24
##DATA TYPE=MASS SPECTRUM
##OWNER=NIST Mass Spectrometry Data Center
Collection (C) 2014 copyright by the U.S. Secretary of Commerce
on behalf of the United States of America. All rights reserved.
##CAS REGISTRY NO=19435-97-3
##$NIST MASS SPEC NO=10457
##MOLFORM=C15 H26 O
##MW=222
##$NIST SOURCE=MSDC
##XUNITS=M/Z
##YUNITS=RELATIVE INTENSITY
##XFACTOR=1
##YFACTOR=1
##FIRSTX=26
##LASTX=222
##FIRSTY=90
##MAXX=222
##MINX=26
##MAXY=9999
##MINY=40
##NPOINTS=113
##PEAK TABLE=(XY..XY)
26,90 27,1231 28,991 29,1321
30,50 31,280 32,60 38,50
39,1151 40,230 41,4494 42,350
43,9108 44,240 45,540 50,70
51,300 52,170 53,1131 54,170
55,2602 56,470 57,611 58,2252
59,350 63,100 65,581 66,190
67,1401 68,310 69,2542 70,440
71,2562 72,140 74,60 75,100
77,1872 78,450 79,2762 80,571
81,3073 82,440 83,280 84,160
85,140 89,80 90,50 91,2082
92,1651 93,3043 94,2012 95,4084
96,530 97,220 103,210 104,90
105,4364 106,871 107,1031 108,581
109,1431 110,190 111,120 115,170
116,100 117,240 118,220 119,5585
120,1932 121,2933 122,611 123,460
124,60 127,170 128,80 129,90
130,50 131,180 132,80 133,951
134,1021 135,540 136,981 137,400
138,80 139,120 145,230 146,100
147,571 148,400 149,400 150,150
151,130 152,80 159,130 160,380
161,9999 162,1902 163,170 164,270
165,60 169,50 175,140 176,60
179,50 189,911 190,140 204,2923
205,741 206,60 207,210 208,50
222,40
##END=
