##TITLE=Pyridine, 2,4,6-tris(1,1-dimethylethyl)-
##JCAMP-DX=4.24
##DATA TYPE=MASS SPECTRUM
##ORIGIN=Chemical Concepts
##OWNER=NIST Mass Spectrometry Data Center
Collection (C) 2014 copyright by the U.S. Secretary of Commerce
on behalf of the United States of America. All rights reserved.
##CAS REGISTRY NO=20336-15-6
##$NIST MASS SPEC NO=192224
##MOLFORM=C17 H29 N
##MW=247
##$NIST SOURCE=MSDC
##XUNITS=M/Z
##YUNITS=RELATIVE INTENSITY
##XFACTOR=1
##YFACTOR=1
##FIRSTX=27
##LASTX=249
##FIRSTY=138
##MAXX=249
##MINX=27
##MAXY=9999
##MINY=25
##NPOINTS=127
##PEAK TABLE=(XY..XY)
27,138 28,97 29,398 30,33
39,202 40,29 41,738 42,59
43,115 51,95 52,36 53,120
54,43 55,141 56,58 57,487
58,40 64,163 66,49 67,110
68,66 69,54 71,25 72,52
73,55 77,215 78,104 79,157
80,68 81,54 86,123 87,66
88,44 89,38 91,370 92,95
93,95 94,66 95,155 96,43
97,40 102,65 103,91 104,70
105,170 106,59 107,65 108,77
115,100 116,114 117,173 118,126
119,122 120,119 121,69 127,28
128,53 129,42 130,142 131,94
132,102 133,132 134,158 135,85
136,70 141,46 142,50 143,76
144,186 145,120 146,185 147,96
148,64 149,184 156,47 157,65
158,162 159,165 160,315 161,201
162,61 171,69 172,186 173,146
174,203 175,261 176,232 177,74
183,136 185,69 186,569 187,260
188,138 189,288 190,340 191,2799
192,524 193,60 198,123 199,52
200,960 201,512 202,774 203,267
204,106 205,7619 206,1251 207,126
214,385 215,226 216,1596 217,946
218,199 219,43 227,70 229,56
230,806 231,502 232,9999 233,1835
234,185 244,71 245,73 246,6044
247,5315 248,1029 249,104
##END=
