##TITLE=Diethyl suberate
##JCAMP-DX=4.24
##DATA TYPE=MASS SPECTRUM
##ORIGIN=Japan AIST/NIMC Database- Spectrum MS-NW-6567
##OWNER=NIST Mass Spectrometry Data Center
Collection (C) 2014 copyright by the U.S. Secretary of Commerce
on behalf of the United States of America. All rights reserved.
##CAS REGISTRY NO=2050-23-9
##$NIST MASS SPEC NO=235932
##MOLFORM=C12 H22 O4
##MW=230
##$NIST SOURCE=MSDC
##XUNITS=M/Z
##YUNITS=RELATIVE INTENSITY
##XFACTOR=1
##YFACTOR=1
##FIRSTX=14
##LASTX=232
##FIRSTY=30
##MAXX=232
##MINX=14
##MAXY=9999
##MINY=10
##NPOINTS=155
##PEAK TABLE=(XY..XY)
14,30 15,139 16,10 18,20
25,20 26,259 27,1749 28,649
29,4649 30,119 31,389 32,40
34,10 37,10 38,10 39,689
40,239 41,3019 42,729 43,1239
44,149 45,1339 46,80 47,30
48,10 49,10 50,20 51,40
52,30 53,249 54,299 55,3159
56,1129 57,289 58,80 59,269
60,2019 61,1519 62,50 63,20
64,10 65,60 66,60 67,599
68,1359 69,4239 70,1679 71,329
72,30 73,1559 74,249 75,50
76,10 77,40 78,50 79,189
80,40 81,409 82,609 83,3049
84,709 85,219 86,70 87,529
88,3389 89,259 90,30 91,40
92,40 93,259 94,139 95,139
96,269 97,4509 98,449 99,179
100,109 101,1989 102,209 103,30
104,30 105,20 106,10 107,10
108,30 109,249 110,1279 111,2529
112,409 113,189 114,119 115,2649
116,239 117,30 119,10 120,50
121,109 122,10 123,10 124,10
125,10 126,10 127,179 128,789
129,589 130,389 131,40 132,10
133,10 134,10 135,10 136,20
137,279 138,6349 139,2829 140,419
141,259 142,859 143,9999 144,929
145,90 148,10 149,20 151,10
154,10 155,80 156,989 157,629
158,919 159,109 160,10 166,30
169,20 170,10 171,20 173,20
174,90 175,10 176,10 177,10
178,10 179,10 181,10 183,30
184,1159 185,9499 186,1129 187,149
188,359 189,50 201,10 202,10
230,139 231,30 232,10
##END=
