##TITLE=9,9'-Biphenanthrene
##JCAMP-DX=4.24
##DATA TYPE=MASS SPECTRUM
##ORIGIN=Chemical Concepts
##OWNER=NIST Mass Spectrometry Data Center
Collection (C) 2014 copyright by the U.S. Secretary of Commerce
on behalf of the United States of America. All rights reserved.
##CAS REGISTRY NO=20532-03-0
##$NIST MASS SPEC NO=155182
##MOLFORM=C28 H18
##MW=354
##$NIST SOURCE=MSDC
##XUNITS=M/Z
##YUNITS=RELATIVE INTENSITY
##XFACTOR=1
##YFACTOR=1
##FIRSTX=26
##LASTX=358
##FIRSTY=14
##MAXX=358
##MINX=26
##MAXY=9999
##MINY=13
##NPOINTS=181
##PEAK TABLE=(XY..XY)
26,14 27,160 38,17 39,96
40,48 41,19 43,16 45,19
50,41 51,56 52,17 60,20
62,25 63,63 64,16 74,43
75,48 76,24 77,26 78,16
86,27 87,34 89,18 98,23
99,19 100,21 101,15 102,17
108,28 109,19 110,18 111,26
112,20 113,24 115,17 116,30
117,41 118,21 122,15 123,18
124,19 125,25 126,24 131,13
135,18 136,33 137,42 138,18
139,20 143,19 144,13 148,48
149,81 150,139 151,47 152,18
155,14 156,26 157,19 158,13
160,32 161,108 162,272 163,240
164,52 165,19 167,13 168,29
169,127 170,126 171,16 172,17
173,84 174,388 175,696 176,1119
177,557 178,48 179,15 185,13
186,19 187,38 188,20 189,19
198,19 199,13 200,32 201,18
202,16 211,20 212,17 222,20
223,15 224,32 225,19 226,14
234,14 235,20 236,19 237,21
246,15 247,13 248,27 249,20
250,19 252,19 254,22 255,14
259,17 260,15 261,21 262,14
263,19 271,13 272,19 273,19
274,32 275,20 276,31 277,19
283,19 284,13 285,33 286,20
287,42 288,15 289,15 294,16
296,32 297,19 298,61 299,29
300,47 301,17 302,21 308,15
309,26 310,18 311,75 312,17
313,70 314,20 315,18 316,14
318,15 319,13 320,31 321,21
322,140 323,56 324,258 325,100
326,325 327,159 328,44 329,17
333,16 334,17 335,50 336,17
337,174 338,91 339,772 340,264
341,51 342,17 344,18 345,20
346,97 347,53 348,464 349,174
350,1826 351,1198 352,4292 353,6869
354,9999 355,2633 356,471 357,47
358,17
##END=
