##TITLE=2-Mercapto-4-phenylthiazole
##JCAMP-DX=4.24
##DATA TYPE=MASS SPECTRUM
##ORIGIN=NIST Mass Spectrometry Data Center, 1994
##OWNER=NIST Mass Spectrometry Data Center
Collection (C) 2014 copyright by the U.S. Secretary of Commerce
on behalf of the United States of America. All rights reserved.
##CAS REGISTRY NO=2103-88-0
##$NIST MASS SPEC NO=135722
##MOLFORM=C9 H7 N S2
##MW=193
##$NIST SOURCE=MSDC
##XUNITS=M/Z
##YUNITS=RELATIVE INTENSITY
##XFACTOR=1
##YFACTOR=1
##FIRSTX=26
##LASTX=197
##FIRSTY=145
##MAXX=197
##MINX=26
##MAXY=9999
##MINY=15
##NPOINTS=109
##PEAK TABLE=(XY..XY)
26,145 27,193 28,211 29,40
32,281 33,105 34,36 37,228
38,430 39,886 40,127 41,15
42,50 44,157 45,1530 46,87
47,69 49,141 50,1061 51,1391
52,362 53,52 55,36 56,43
57,130 58,270 59,668 60,106
61,305 62,542 63,1370 64,413
65,187 66,69 67,125 68,77
69,826 70,256 71,161 72,45
73,119 74,523 75,494 76,921
77,1024 78,94 79,33 80,52
81,250 82,333 83,117 84,191
85,81 86,121 87,171 88,200
89,2375 90,1963 91,1437 92,190
93,432 94,101 95,175 97,132
98,82 99,64 101,79 102,949
103,574 104,520 105,119 106,93
107,80 108,666 109,95 110,41
114,68 115,103 116,141 117,104
119,52 120,97 121,458 122,87
128,48 129,344 130,51 134,6360
135,1732 136,478 137,97 146,179
147,157 148,373 149,404 150,64
159,232 160,510 161,188 162,48
165,85 166,305 167,59 192,1886
193,9999 194,1426 195,954 196,135
197,41
##END=
