##TITLE=Thiocyanic acid, (2-benzothiazolylthio)methyl ester
##JCAMP-DX=4.24
##DATA TYPE=MASS SPECTRUM
##ORIGIN=NIST Mass Spectrometry Data Center, 1998.
##OWNER=NIST Mass Spectrometry Data Center
Collection (C) 2014 copyright by the U.S. Secretary of Commerce
on behalf of the United States of America. All rights reserved.
##CAS REGISTRY NO=21564-17-0
##$NIST MASS SPEC NO=291838
##MOLFORM=C9 H6 N2 S3
##MW=238
##$NIST SOURCE=MSDC
##XUNITS=M/Z
##YUNITS=RELATIVE INTENSITY
##XFACTOR=1
##YFACTOR=1
##FIRSTX=14
##LASTX=242
##FIRSTY=10
##MAXX=242
##MINX=14
##MAXY=9999
##MINY=10
##NPOINTS=136
##PEAK TABLE=(XY..XY)
14,10 26,30 27,40 28,30
32,70 33,10 34,10 36,10
37,110 38,200 39,520 40,30
41,10 44,110 45,1970 46,600
47,100 48,30 49,40 50,430
51,400 52,120 53,10 54,20
56,20 57,180 58,420 59,70
60,40 61,120 62,240 63,1110
64,530 65,160 66,20 69,1300
70,290 71,130 72,430 73,50
74,230 75,380 76,350 77,730
78,290 79,20 80,20 81,260
82,650 83,140 84,100 85,10
86,10 87,30 88,80 89,10
90,880 91,150 92,30 93,140
94,150 95,270 96,210 97,40
98,10 99,20 100,20 102,550
103,90 104,230 105,50 106,90
107,350 108,2280 109,770 110,160
111,30 112,10 114,10 116,800
117,70 118,10 119,10 120,60
121,260 122,1240 123,140 124,70
125,10 126,10 128,10 133,340
134,430 135,540 136,3790 137,360
138,190 139,210 140,100 141,30
142,10 146,60 147,20 148,100
149,10 150,10 151,10 152,10
153,130 154,20 155,10 160,10
161,10 164,10 165,90 166,1310
167,1140 168,440 169,120 170,30
171,10 178,60 180,9999 181,1140
182,980 183,90 184,30 192,190
193,60 194,20 195,10 238,1740
239,230 240,250 241,30 242,10
##END=
