##TITLE=Dibenzo[b,k]chrysene
##JCAMP-DX=4.24
##DATA TYPE=MASS SPECTRUM
##ORIGIN=Chemical Concepts
##OWNER=NIST Mass Spectrometry Data Center
Collection (C) 2014 copyright by the U.S. Secretary of Commerce
on behalf of the United States of America. All rights reserved.
##CAS REGISTRY NO=217-54-9
##$NIST MASS SPEC NO=154312
##MOLFORM=C26 H16
##MW=328
##$NIST SOURCE=MSDC
##XUNITS=M/Z
##YUNITS=RELATIVE INTENSITY
##XFACTOR=1
##YFACTOR=1
##FIRSTX=27
##LASTX=330
##FIRSTY=73
##MAXX=330
##MINX=27
##MAXY=9999
##MINY=1
##NPOINTS=111
##PEAK TABLE=(XY..XY)
27,73 29,15 30,24 36,3
38,13 39,82 41,9 43,9
44,85 50,33 51,54 52,16
55,3 57,1 63,30 65,13
74,15 77,18 87,6 93,4
123,8 124,20 125,37 126,18
131,5 136,17 137,72 138,65
143,16 144,17 148,27 149,116
150,190 151,98 152,15 155,14
156,24 157,37 158,48 161,68
162,366 163,782 164,1198 165,52
169,18 170,27 171,66 187,18
200,23 202,18 211,15 213,17
223,18 224,33 225,22 226,35
228,23 235,14 237,20 238,15
248,38 249,30 250,33 252,21
261,34 262,18 263,32 272,32
273,32 274,81 275,37 276,54
277,16 285,42 286,17 287,49
288,20 289,66 290,20 292,20
296,61 297,37 298,148 299,92
300,187 301,69 302,90 303,34
304,25 305,13 306,35 309,18
311,61 312,26 313,105 314,32
315,159 316,253 317,64 318,32
320,36 321,26 322,174 323,118
324,676 325,300 326,1783 327,766
328,9999 329,3000 330,481
##END=
