##TITLE=p-Cresyl glycidyl ether
##JCAMP-DX=4.24
##DATA TYPE=MASS SPECTRUM
##ORIGIN=Japan AIST/NIMC Database- Spectrum MS-NW- 797
##OWNER=NIST Mass Spectrometry Data Center
Collection (C) 2014 copyright by the U.S. Secretary of Commerce
on behalf of the United States of America. All rights reserved.
##CAS REGISTRY NO=2186-24-5
##$NIST MASS SPEC NO=229488
##MOLFORM=C10 H12 O2
##MW=164
##$NIST SOURCE=MSDC
##XUNITS=M/Z
##YUNITS=RELATIVE INTENSITY
##XFACTOR=1
##YFACTOR=1
##FIRSTX=14
##LASTX=166
##FIRSTY=30
##MAXX=166
##MINX=14
##MAXY=9999
##MINY=10
##NPOINTS=105
##PEAK TABLE=(XY..XY)
14,30 15,109 17,30 18,149
25,10 26,249 27,2119 28,709
29,2299 30,109 31,2639 32,109
37,60 38,199 39,1349 40,139
41,649 42,219 43,389 44,30
45,20 49,40 50,619 51,1349
52,719 53,739 54,70 55,299
56,289 57,2209 58,80 59,10
60,20 61,70 62,219 63,669
64,179 65,1469 66,159 67,50
68,30 69,50 70,70 71,99
72,50 73,30 74,119 75,99
76,90 77,2929 78,929 79,1649
80,749 81,90 82,30 83,20
84,40 85,30 86,40 87,30
88,10 89,419 90,779 91,6139
92,899 93,1209 94,119 95,30
98,10 102,30 103,179 104,50
105,1189 106,209 107,6169 108,9999
109,769 110,50 115,99 116,30
117,70 118,30 119,519 120,449
121,3219 122,339 123,30 131,119
132,30 133,719 134,1309 135,289
136,30 144,20 145,579 146,289
147,50 148,99 149,30 150,10
162,70 163,40 164,9389 165,1039
166,90
##END=
