##TITLE=Benz[a]anthracene, 5-methyl-
##JCAMP-DX=4.24
##DATA TYPE=MASS SPECTRUM
##OWNER=NIST Mass Spectrometry Data Center
Collection (C) 2014 copyright by the U.S. Secretary of Commerce
on behalf of the United States of America. All rights reserved.
##CAS REGISTRY NO=2319-96-2
##$NIST MASS SPEC NO=11687
##MOLFORM=C19 H14
##MW=242
##$NIST SOURCE=MSDC
##XUNITS=M/Z
##YUNITS=RELATIVE INTENSITY
##XFACTOR=1
##YFACTOR=1
##FIRSTX=36
##LASTX=245
##FIRSTY=30
##MAXX=245
##MINX=36
##MAXY=9999
##MINY=10
##NPOINTS=144
##PEAK TABLE=(XY..XY)
36,30 37,30 38,70 39,220
40,220 41,90 42,20 43,50
44,60 45,50 47,10 49,10
50,140 51,150 52,60 53,10
55,30 56,30 57,100 58,10
59,20 61,20 62,70 63,150
64,20 65,20 67,10 68,10
69,10 70,10 71,20 72,10
73,20 74,100 75,100 76,40
77,60 78,180 79,40 80,30
81,30 82,20 83,10 85,30
86,90 87,140 88,60 89,40
90,10 91,10 93,30 94,90
95,60 97,10 98,80 99,60
100,100 101,50 102,10 103,10
105,30 106,130 107,170 108,240
109,10 110,40 111,50 112,90
113,240 114,20 115,30 117,20
118,90 119,250 120,480 121,1061
122,50 123,20 124,10 125,10
126,30 127,10 128,10 133,10
134,20 135,20 137,20 138,10
139,50 140,10 150,50 151,30
152,30 161,20 162,20 163,80
164,20 165,50 166,10 173,10
174,40 175,30 176,50 177,10
186,20 187,110 188,40 189,110
190,20 191,10 198,20 199,20
200,60 201,20 202,60 203,20
205,10 211,80 212,40 213,280
214,70 215,751 216,150 217,10
219,20 220,10 223,20 224,110
225,60 226,390 227,90 228,30
229,10 235,40 236,30 237,290
238,110 239,1772 240,631 241,1752
242,9999 243,2052 244,200 245,10
##END=
