##TITLE=Benzo[a]pentacene
##JCAMP-DX=4.24
##DATA TYPE=MASS SPECTRUM
##ORIGIN=Chemical Concepts
##OWNER=NIST Mass Spectrometry Data Center
Collection (C) 2014 copyright by the U.S. Secretary of Commerce
on behalf of the United States of America. All rights reserved.
##CAS REGISTRY NO=239-98-5
##$NIST MASS SPEC NO=155240
##MOLFORM=C26 H16
##MW=328
##$NIST SOURCE=MSDC
##XUNITS=M/Z
##YUNITS=RELATIVE INTENSITY
##XFACTOR=1
##YFACTOR=1
##FIRSTX=26
##LASTX=331
##FIRSTY=5
##MAXX=331
##MINX=26
##MAXY=9999
##MINY=1
##NPOINTS=168
##PEAK TABLE=(XY..XY)
26,5 27,19 37,5 38,16
39,48 50,29 51,29 52,5
61,8 62,19 63,36 64,8
74,30 75,15 86,20 87,13
88,6 89,2 92,4 98,11
99,13 100,11 101,2 102,3
107,6 108,4 109,12 110,4
111,6 112,14 113,5 115,1
122,5 123,5 124,13 125,10
126,4 130,7 131,4 132,9
134,6 135,8 136,22 137,54
138,35 139,5 142,6 143,3
144,7 145,8 147,9 148,35
149,87 150,156 151,87 152,2
155,8 156,5 157,9 158,4
159,5 160,11 161,66 162,214
163,419 164,710 165,24 172,5
173,3 174,6 175,7 176,2
181,3 185,9 186,9 187,18
188,8 189,1 197,8 198,12
199,8 200,16 201,9 202,8
209,6 210,8 211,13 212,5
213,10 220,6 221,8 222,17
223,13 224,21 225,9 226,3
233,7 234,8 235,13 236,7
237,17 238,9 239,6 246,9
247,7 248,24 249,11 250,15
251,8 252,9 257,6 259,10
260,9 261,17 262,10 263,19
264,9 265,8 270,8 271,10
272,28 273,20 274,47 275,12
276,32 277,6 278,57 279,8
283,11 284,9 285,20 286,6
287,38 288,12 289,19 290,9
294,9 295,9 296,35 297,22
298,101 299,52 300,168 301,51
302,78 303,27 304,6 307,7
309,9 310,9 311,23 312,11
313,33 317,9 318,9 319,9
320,21 321,19 322,122 323,71
324,504 325,195 326,1158 327,506
328,9999 329,2719 330,421 331,37
##END=
