##TITLE=2-Naphthalenecarboxylic acid, methyl ester
##JCAMP-DX=4.24
##DATA TYPE=MASS SPECTRUM
##ORIGIN=Chemical Concepts
##OWNER=NIST Mass Spectrometry Data Center
Collection (C) 2014 copyright by the U.S. Secretary of Commerce
on behalf of the United States of America. All rights reserved.
##CAS REGISTRY NO=2459-25-8
##$NIST MASS SPEC NO=210940
##MOLFORM=C12 H10 O2
##MW=186
##$NIST SOURCE=MSDC
##XUNITS=M/Z
##YUNITS=RELATIVE INTENSITY
##XFACTOR=1
##YFACTOR=1
##FIRSTX=26
##LASTX=189
##FIRSTY=44
##MAXX=189
##MINX=26
##MAXY=9999
##MINY=5
##NPOINTS=140
##PEAK TABLE=(XY..XY)
26,44 27,120 28,245 29,147
30,40 31,43 32,72 37,33
38,78 39,231 40,15 41,98
42,78 43,92 44,20 45,22
49,27 50,594 51,844 52,127
53,62 54,11 55,85 56,20
57,103 58,14 59,59 60,12
61,80 62,260 63,1239 64,258
65,36 66,9 67,31 68,16
69,63 70,54 71,56 72,7
73,57 74,625 75,896 76,485
77,1376 78,211 79,27 80,7
81,39 82,17 83,35 84,109
85,60 86,143 87,238 88,73
89,65 90,9 91,20 92,11
93,153 94,11 95,40 96,20
97,63 98,186 99,199 100,169
101,747 102,98 103,13 104,74
105,21 107,11 108,7 109,21
110,19 111,32 112,12 113,53
114,122 115,166 116,20 117,6
118,5 119,8 120,7 121,17
122,32 123,29 124,13 125,175
126,1589 127,8337 128,1022 129,151
130,32 131,11 133,56 134,11
135,10 137,11 139,18 140,64
141,246 142,87 143,30 144,9
145,7 147,7 149,31 150,8
151,12 152,9 153,20 154,85
155,9999 156,1136 157,95 158,14
159,5 165,6 167,11 168,46
169,32 170,44 171,44 172,7
177,7 178,8 179,9 180,5
181,9 182,6 184,5 185,88
186,6632 187,875 188,70 189,9
##END=
