##TITLE=2-Phenoxyphenylacetonitrile
##JCAMP-DX=4.24
##DATA TYPE=MASS SPECTRUM
##ORIGIN=NIST Mass Spectrometry Data Center, 1994
##OWNER=NIST Mass Spectrometry Data Center
Collection (C) 2014 copyright by the U.S. Secretary of Commerce
on behalf of the United States of America. All rights reserved.
##CAS REGISTRY NO=25562-98-5
##$NIST MASS SPEC NO=134656
##MOLFORM=C14 H11 N O
##MW=209
##$NIST SOURCE=MSDC
##XUNITS=M/Z
##YUNITS=RELATIVE INTENSITY
##XFACTOR=1
##YFACTOR=1
##FIRSTX=14
##LASTX=211
##FIRSTY=13
##MAXX=211
##MINX=14
##MAXY=9999
##MINY=13
##NPOINTS=94
##PEAK TABLE=(XY..XY)
14,13 26,330 27,1340 28,275
29,67 37,321 38,1329 39,5560
40,654 41,293 50,3417 51,9999
52,1582 53,408 54,70 55,225
58,121 61,285 62,1161 63,3445
64,1236 65,2064 66,513 67,64
69,71 71,150 74,868 75,1038
76,2671 77,7608 78,7155 79,479
85,60 86,174 87,273 88,560
89,2797 90,882 91,889 93,61
94,228 100,61 101,76 102,282
103,1294 104,891 105,484 106,681
107,72 113,135 114,337 115,1123
116,1626 117,178 126,132 127,200
128,221 129,85 130,68 131,293
132,835 133,96 139,412 140,241
141,643 142,107 150,52 151,213
152,767 153,703 154,254 155,171
163,58 164,198 165,1571 166,495
167,103 168,462 169,602 170,75
177,55 178,72 180,2862 181,8673
182,1279 183,316 190,295 191,83
206,82 207,78 208,821 209,8473
210,1310 211,140
##END=
