##TITLE=Etridiazole
##JCAMP-DX=4.24
##DATA TYPE=MASS SPECTRUM
##ORIGIN=ACCUSTANDARD Chemicals / NIST MS Data Center.
##OWNER=NIST Mass Spectrometry Data Center
Collection (C) 2014 copyright by the U.S. Secretary of Commerce
on behalf of the United States of America. All rights reserved.
##CAS REGISTRY NO=2593-15-9
##$NIST MASS SPEC NO=125517
##MOLFORM=C5 H5 Cl3 N2 O S
##MW=246
##$NIST SOURCE=MSDC
##XUNITS=M/Z
##YUNITS=RELATIVE INTENSITY
##XFACTOR=1
##YFACTOR=1
##FIRSTX=13
##LASTX=252
##FIRSTY=158
##MAXX=252
##MINX=13
##MAXY=9999
##MINY=37
##NPOINTS=125
##PEAK TABLE=(XY..XY)
13,158 15,211 17,37 18,103
25,62 26,582 27,2404 28,720
29,3826 30,172 31,37 32,380
35,300 37,93 38,268 42,116
43,144 44,231 45,104 46,1324
47,646 48,99 49,260 52,134
54,150 58,293 59,195 60,200
61,489 63,261 65,79 67,145
69,250 70,539 72,310 73,592
74,207 75,447 79,832 81,345
82,484 84,405 85,94 86,128
87,211 93,73 94,86 100,144
101,439 102,94 103,265 104,73
105,332 106,155 107,73 108,1691
109,243 110,945 111,83 112,188
113,83 114,1143 115,73 116,837
117,714 118,237 119,590 120,58
121,250 123,134 124,389 125,87
126,273 128,82 129,116 138,149
140,3171 141,459 142,2285 143,242
144,593 145,82 146,306 147,106
148,117 149,196 150,49 151,172
157,111 158,67 167,66 169,60
172,60 175,1795 177,1994 179,704
180,83 182,1822 183,7985 184,1551
185,5314 186,625 187,1033 188,69
202,83 209,87 211,9999 213,6488
214,566 215,1224 216,117 217,83
218,1073 219,83 220,941 221,83
222,351 224,82 231,80 233,97
246,1497 248,1616 249,144 250,595
252,96
##END=
