##TITLE=Diazene, bis[4-(heptyloxy)phenyl]-, 1-oxide
##JCAMP-DX=4.24
##DATA TYPE=MASS SPECTRUM
##ORIGIN=Leung Pu, NIH, Bethesda, Maryland, U.S.
##OWNER=NIST Mass Spectrometry Data Center
Collection (C) 2014 copyright by the U.S. Secretary of Commerce
on behalf of the United States of America. All rights reserved.
##CAS REGISTRY NO=2635-26-9
##$NIST MASS SPEC NO=212818
##MOLFORM=C26 H38 N2 O3
##MW=426
##$NIST SOURCE=MSDC
##XUNITS=M/Z
##YUNITS=RELATIVE INTENSITY
##XFACTOR=1
##YFACTOR=1
##FIRSTX=41
##LASTX=429
##FIRSTY=4087
##MAXX=429
##MINX=41
##MAXY=9999
##MINY=4
##NPOINTS=202
##PEAK TABLE=(XY..XY)
41,4087 42,225 43,6080 44,179
45,27 47,24 49,100 50,66
51,109 52,272 53,230 55,6047
57,9999 58,206 60,35 61,4
62,22 63,157 64,202 65,1035
66,65 67,207 68,54 69,953
70,113 71,179 73,36 74,23
75,45 76,321 77,202 78,162
79,687 80,321 81,402 82,73
83,97 84,109 85,30 86,73
87,20 88,19 89,27 90,99
91,180 92,60 93,2717 94,502
95,635 96,95 97,228 98,50
99,30 101,23 102,14 103,39
104,32 105,116 106,339 107,7465
108,1686 109,706 110,102 111,32
112,12 113,31 114,15 115,75
116,18 117,64 118,23 119,100
120,119 121,627 122,118 123,3243
124,1346 125,90 126,15 127,81
128,62 129,42 130,19 131,116
132,50 133,191 134,86 135,85
136,66 137,124 138,17 139,120
140,80 141,41 142,11 143,16
144,31 145,63 146,42 147,78
148,46 149,56 150,29 151,6
153,6 154,12 155,37 156,22
157,64 158,21 159,19 160,21
161,59 162,40 163,17 164,23
165,11 166,231 167,367 168,65
169,15 170,17 171,26 172,16
173,96 174,59 175,14 176,35
177,10 182,14 183,29 184,63
185,149 186,83 187,49 188,11
189,55 190,21 191,156 192,27
193,5 195,5 196,17 197,17
198,17 199,43 200,51 201,641
202,379 203,47 204,15 205,318
206,73 207,45 208,12 211,9
212,59 213,354 214,72 215,16
218,49 219,164 220,68 221,283
222,115 223,15 225,8 227,4
229,393 230,379 231,51 241,13
242,15 259,15 271,11 283,21
284,10 297,4 298,4 299,56
300,248 301,46 311,71 312,117
313,33 327,339 328,659 329,185
330,29 341,29 342,10 381,5
398,5 408,38 410,396 411,115
412,21 424,18 426,7004 427,1861
428,311 429,37
##END=
