##TITLE=Alprazolam
##JCAMP-DX=4.24
##DATA TYPE=MASS SPECTRUM
##ORIGIN=Virginia Division of Forensic Science
##OWNER=NIST Mass Spectrometry Data Center
Collection (C) 2014 copyright by the U.S. Secretary of Commerce
on behalf of the United States of America. All rights reserved.
##CAS REGISTRY NO=28981-97-7
##$NIST MASS SPEC NO=250574
##MOLFORM=C17 H13 Cl N4
##MW=308
##$NIST SOURCE=MSDC
##XUNITS=M/Z
##YUNITS=RELATIVE INTENSITY
##XFACTOR=1
##YFACTOR=1
##FIRSTX=15
##LASTX=312
##FIRSTY=100
##MAXX=312
##MINX=15
##MAXY=9999
##MINY=10
##NPOINTS=207
##PEAK TABLE=(XY..XY)
15,100 16,40 26,180 27,400
28,20 29,20 37,70 38,260
39,810 40,380 41,320 42,520
43,20 49,140 50,980 51,2312
52,370 53,160 54,110 55,10
56,50 57,30 60,50 61,240
62,600 63,1271 64,420 65,510
66,270 67,170 68,60 69,130
71,20 73,360 74,1080 75,3102
76,1731 77,4864 78,560 79,60
80,90 81,450 84,170 85,220
86,450 87,730 89,2061 90,420
91,590 92,70 93,320 94,190
96,180 97,190 98,430 99,770
100,1501 101,1111 102,3563 104,660
105,110 106,210 107,240 108,80
109,180 110,770 111,1211 112,550
113,770 114,460 116,1321 117,130
118,50 120,960 121,440 122,170
123,390 124,880 125,390 126,760
127,610 128,300 129,810 130,90
132,150 134,450 135,210 136,1321
137,3222 138,1471 139,1261 140,580
141,270 142,490 143,80 147,40
148,60 149,450 150,1111 151,1651
152,840 153,260 154,140 155,30
160,30 161,200 162,500 163,1891
164,1080 165,720 166,260 167,40
170,140 171,40 173,80 174,190
175,440 176,1681 177,2992 178,1000
179,520 180,70 185,60 186,150
187,100 188,310 189,260 190,680
191,240 192,210 193,40 197,40
198,100 199,360 200,140 201,390
202,820 203,2902 204,9999 205,3282
206,420 207,90 210,20 211,140
212,300 213,300 214,230 215,150
216,150 217,280 218,280 219,1121
220,190 223,20 224,110 225,50
226,70 227,60 228,70 229,90
230,250 231,440 232,1020 233,220
237,220 238,1711 239,2232 240,1151
241,840 242,280 243,280 244,250
245,2652 246,520 247,40 251,60
252,140 253,920 254,600 255,380
256,150 257,20 264,30 265,330
266,820 267,320 268,370 269,50
270,40 273,5795 274,1151 275,100
277,70 279,9208 280,2121 281,3292
282,720 283,80 293,80 294,30
295,30 307,3072 308,7326 309,2312
310,2442 311,440 312,40
##END=
