##TITLE=4,4',4''-Trimethoxytrityl alcohol
##JCAMP-DX=4.24
##DATA TYPE=MASS SPECTRUM
##ORIGIN=NIST Mass Spectrometry Data Center, 1994
##OWNER=NIST Mass Spectrometry Data Center
Collection (C) 2014 copyright by the U.S. Secretary of Commerce
on behalf of the United States of America. All rights reserved.
##CAS REGISTRY NO=3010-81-9
##$NIST MASS SPEC NO=136220
##MOLFORM=C22 H22 O4
##MW=350
##$NIST SOURCE=MSDC
##XUNITS=M/Z
##YUNITS=RELATIVE INTENSITY
##XFACTOR=1
##YFACTOR=1
##FIRSTX=15
##LASTX=353
##FIRSTY=961
##MAXX=353
##MINX=15
##MAXY=9999
##MINY=11
##NPOINTS=127
##PEAK TABLE=(XY..XY)
15,961 16,96 27,135 28,68
29,225 31,102 38,118 39,326
50,228 51,197 53,151 55,82
63,417 64,716 65,373 75,142
76,415 77,2186 78,455 79,286
87,86 88,170 89,221 92,1415
93,204 95,177 101,233 102,149
103,68 104,152 105,98 106,68
107,1332 108,599 109,112 113,166
115,136 116,124 120,78 121,325
122,112 123,85 127,195 128,346
129,113 130,80 135,9999 136,1098
137,148 138,80 139,350 140,104
141,81 142,104 143,87 145,75
150,131 151,100 152,203 153,69
155,104 157,110 158,90 159,75
165,89 166,128 167,55 168,278
171,183 176,156 177,97 178,99
181,14 182,75 183,63 184,143
189,297 195,27 196,55 197,71
198,14 199,351 200,485 201,149
202,375 203,250 204,121 210,60
211,189 213,248 214,1655 215,2163
216,381 217,109 225,185 228,12
229,77 231,162 232,162 241,191
242,1098 243,9468 244,1568 245,352
247,210 258,86 259,393 260,172
274,178 275,519 276,134 277,88
288,70 289,459 290,153 301,183
302,100 318,2220 319,594 320,178
331,160 333,4196 334,977 350,5737
351,1391 352,163 353,11
##END=
