##TITLE=Murexide
##JCAMP-DX=4.24
##DATA TYPE=MASS SPECTRUM
##ORIGIN=Japan AIST/NIMC Database- Spectrum MS-NW-4871
##OWNER=NIST Mass Spectrometry Data Center
Collection (C) 2014 copyright by the U.S. Secretary of Commerce
on behalf of the United States of America. All rights reserved.
##CAS REGISTRY NO=3051-09-0
##$NIST MASS SPEC NO=229782
##MOLFORM=C8 H8 N6 O6
##MW=284
##$NIST SOURCE=MSDC
##XUNITS=M/Z
##YUNITS=RELATIVE INTENSITY
##XFACTOR=1
##YFACTOR=1
##FIRSTX=12
##LASTX=268
##FIRSTY=229
##MAXX=268
##MINX=12
##MAXY=9999
##MINY=70
##NPOINTS=126
##PEAK TABLE=(XY..XY)
12,229 14,139 15,379 16,2269
17,2889 18,1659 25,80 26,559
27,1769 28,2789 29,2019 30,259
32,109 38,999 39,1339 40,869
41,1489 42,5909 43,9999 44,7369
45,289 46,90 51,139 52,439
53,1839 54,3479 55,2109 56,239
57,289 59,149 60,189 63,70
64,639 65,299 66,649 67,1789
68,1079 69,1509 70,3079 71,299
72,90 73,80 77,119 78,149
79,139 80,179 81,249 82,1749
83,349 84,169 85,629 86,929
87,269 91,70 92,279 93,299
94,239 95,90 96,199 97,359
98,539 99,99 100,259 105,90
107,90 108,119 109,299 110,2479
111,339 112,189 113,789 114,579
122,80 123,70 124,159 125,429
126,269 128,959 129,879 130,119
134,239 135,349 136,129 137,139
138,289 139,80 140,339 141,649
142,90 143,90 150,90 151,229
152,129 153,1329 154,529 155,389
163,139 164,80 166,149 167,119
168,619 169,219 170,119 171,139
177,199 178,259 179,389 180,179
181,289 193,109 194,729 195,259
196,149 205,119 206,139 211,239
222,159 223,159 224,179 239,259
248,409 249,139 254,539 255,90
267,1319 268,179
##END=
