##TITLE=1,3,5-Benzenetriamine, 2,4,6-trinitro-
##JCAMP-DX=4.24
##DATA TYPE=MASS SPECTRUM
##ORIGIN=Japan AIST/NIMC Database- Spectrum MS-IW-3309
##OWNER=NIST Mass Spectrometry Data Center
Collection (C) 2014 copyright by the U.S. Secretary of Commerce
on behalf of the United States of America. All rights reserved.
##CAS REGISTRY NO=3058-38-6
##$NIST MASS SPEC NO=237178
##MOLFORM=C6 H6 N6 O6
##MW=258
##$NIST SOURCE=MSDC
##XUNITS=M/Z
##YUNITS=RELATIVE INTENSITY
##XFACTOR=1
##YFACTOR=1
##FIRSTX=17
##LASTX=261
##FIRSTY=20
##MAXX=261
##MINX=17
##MAXY=9999
##MINY=10
##NPOINTS=159
##PEAK TABLE=(XY..XY)
17,20 26,10 27,60 28,599
29,40 30,239 36,10 37,40
38,70 39,129 40,279 41,159
42,199 43,209 44,329 45,30
46,50 49,10 50,20 51,119
52,669 53,399 54,349 55,119
56,30 57,50 59,20 60,10
62,40 63,109 64,319 65,319
66,519 67,1129 68,439 69,289
70,149 71,50 74,10 75,60
76,189 77,359 78,229 79,449
80,389 81,109 82,70 83,30
84,30 85,40 86,50 87,10
88,10 89,50 90,219 91,829
92,759 93,479 94,179 95,209
96,90 97,40 98,10 99,10
100,10 101,70 102,30 103,109
104,549 105,149 106,119 107,199
108,279 109,60 110,60 111,20
112,30 113,10 116,10 117,40
118,279 119,839 120,509 121,139
122,189 123,80 124,60 125,20
127,20 129,10 131,239 132,239
133,70 134,149 135,99 136,119
137,169 138,60 139,80 140,10
146,30 147,319 148,119 149,139
150,40 151,30 152,40 153,10
154,99 155,10 161,10 162,30
163,20 164,159 165,519 166,169
167,20 176,10 177,10 178,40
179,10 180,20 181,50 182,389
183,30 184,10 185,10 192,10
193,10 194,50 195,40 198,10
201,20 204,10 205,30 206,20
207,20 208,60 209,20 210,50
211,70 212,10 222,10 223,10
224,499 225,289 226,40 227,10
228,1689 229,149 230,20 240,30
241,179 242,329 243,50 258,9999
259,889 260,159 261,10
##END=
