##TITLE=Decanoic acid, propyl ester
##JCAMP-DX=4.24
##DATA TYPE=MASS SPECTRUM
##ORIGIN=Japan AIST/NIMC Database- Spectrum MS-NW- 813
##OWNER=NIST Mass Spectrometry Data Center
Collection (C) 2014 copyright by the U.S. Secretary of Commerce
on behalf of the United States of America. All rights reserved.
##CAS REGISTRY NO=30673-60-0
##$NIST MASS SPEC NO=229582
##MOLFORM=C13 H26 O2
##MW=214
##$NIST SOURCE=MSDC
##XUNITS=M/Z
##YUNITS=RELATIVE INTENSITY
##XFACTOR=1
##YFACTOR=1
##FIRSTX=15
##LASTX=216
##FIRSTY=30
##MAXX=216
##MINX=15
##MAXY=9999
##MINY=10
##NPOINTS=121
##PEAK TABLE=(XY..XY)
15,30 18,40 26,50 27,1439
28,359 29,1729 30,40 31,189
32,30 36,10 37,10 38,30
39,919 40,209 41,4629 42,2209
43,7389 44,259 45,189 50,10
51,40 52,20 53,259 54,279
55,2739 56,859 57,2749 58,169
59,629 60,6229 61,9999 62,249
63,50 65,40 66,30 67,419
68,389 69,1949 70,469 71,2249
72,149 73,4269 74,529 75,129
77,30 78,20 79,99 80,30
81,499 82,189 83,949 84,809
85,1089 86,80 87,1239 88,80
89,299 90,20 91,20 93,80
94,30 95,479 96,90 97,649
98,679 99,90 100,30 101,409
102,5029 103,939 104,70 107,50
108,30 109,80 110,269 111,349
112,199 113,60 114,30 115,2399
116,209 117,109 121,30 123,30
124,20 125,90 126,60 127,40
128,10 129,1749 130,159 131,40
134,10 135,159 136,60 137,109
138,10 139,50 143,359 144,70
145,30 152,90 153,269 154,60
155,6649 156,739 157,239 158,30
170,20 171,809 172,849 173,7869
174,869 175,80 185,109 186,20
199,10 213,10 214,639 215,129
216,10
##END=
