##TITLE=n-Capric acid isobutyl ester
##JCAMP-DX=4.24
##DATA TYPE=MASS SPECTRUM
##ORIGIN=Japan AIST/NIMC Database- Spectrum MS-NW-8344
##OWNER=NIST Mass Spectrometry Data Center
Collection (C) 2014 copyright by the U.S. Secretary of Commerce
on behalf of the United States of America. All rights reserved.
##CAS REGISTRY NO=30673-38-2
##$NIST MASS SPEC NO=228840
##MOLFORM=C14 H28 O2
##MW=228
##$NIST SOURCE=MSDC
##XUNITS=M/Z
##YUNITS=RELATIVE INTENSITY
##XFACTOR=1
##YFACTOR=1
##FIRSTX=15
##LASTX=229
##FIRSTY=20
##MAXX=229
##MINX=15
##MAXY=9999
##MINY=10
##NPOINTS=105
##PEAK TABLE=(XY..XY)
15,20 18,10 26,20 27,539
28,249 29,1609 30,40 31,70
38,10 39,419 40,99 41,2769
42,589 43,2839 44,99 45,80
51,10 52,10 53,109 54,119
55,1429 56,9999 57,7969 58,349
59,70 60,2089 61,609 62,20
65,10 66,10 67,249 68,159
69,799 70,259 71,1869 72,109
73,1399 74,179 75,20 77,10
79,40 80,10 81,409 82,99
83,459 84,369 85,839 86,139
87,509 88,40 89,129 93,30
94,10 95,389 96,50 97,259
98,289 99,40 100,20 101,219
102,30 103,109 107,20 108,10
109,30 110,129 111,129 112,159
113,50 114,10 115,279 116,389
117,109 121,10 123,10 124,10
125,30 126,20 127,10 129,959
130,80 131,10 135,60 136,30
137,80 138,10 139,10 143,159
144,20 152,20 153,70 154,10
155,4179 156,459 157,40 171,20
172,749 173,2109 174,239 175,20
185,10 198,50 213,20 228,10
229,10
##END=
