##TITLE=4,7,13,16,21-Pentaoxa-1,10-diazabicyclo[8.8.5]tricosane
##JCAMP-DX=4.24
##DATA TYPE=MASS SPECTRUM
##ORIGIN=Chemical Concepts
##OWNER=NIST Mass Spectrometry Data Center
Collection (C) 2014 copyright by the U.S. Secretary of Commerce
on behalf of the United States of America. All rights reserved.
##CAS REGISTRY NO=31364-42-8
##$NIST MASS SPEC NO=163507
##MOLFORM=C16 H32 N2 O5
##MW=332
##$NIST SOURCE=MSDC
##XUNITS=M/Z
##YUNITS=RELATIVE INTENSITY
##XFACTOR=1
##YFACTOR=1
##FIRSTX=27
##LASTX=334
##FIRSTY=560
##MAXX=334
##MINX=27
##MAXY=9999
##MINY=18
##NPOINTS=175
##PEAK TABLE=(XY..XY)
27,560 28,1708 29,1469 30,870
31,448 39,18 41,1105 42,3661
43,1368 44,1385 45,2632 46,42
54,463 55,719 56,5055 57,1266
58,1767 59,298 64,24 65,73
67,76 68,325 69,925 70,2693
71,1237 72,1738 73,268 74,386
75,21 78,275 79,260 81,68
82,567 83,845 84,1362 85,672
86,1528 87,520 88,1826 89,191
93,104 94,208 95,899 96,589
97,761 98,859 99,816 100,4318
101,581 102,2258 103,142 108,208
109,85 110,278 111,713 112,1350
113,1198 114,9999 115,1080 116,677
117,74 118,240 121,21 122,1771
123,49 124,191 125,1730 126,860
127,834 128,1442 129,829 130,893
131,159 132,1412 133,111 134,37
136,38 138,178 139,159 140,343
141,195 142,777 143,269 144,3192
145,390 146,913 147,85 148,64
151,293 152,72 153,42 154,106
155,191 156,348 157,888 158,1123
159,215 160,721 161,78 162,1102
163,85 166,75 168,72 169,204
170,476 171,147 172,618 173,260
174,466 175,129 176,224 178,118
182,82 183,108 184,191 185,120
186,259 187,281 188,872 189,135
190,119 199,184 200,159 201,256
202,353 203,76 204,278 206,53
213,564 214,149 215,190 216,87
217,115 218,188 219,21 220,157
222,132 226,72 227,296 228,46
229,212 230,68 231,298 232,79
239,63 241,176 243,322 244,142
245,171 246,83 255,38 257,988
258,224 259,156 270,41 271,1334
272,260 273,151 275,128 285,64
287,392 288,353 289,343 290,21
301,2002 302,711 303,253 304,18
315,420 316,72 317,39 331,327
332,3508 333,639 334,97
##END=
