##TITLE=.delta.-Lindane
##JCAMP-DX=4.24
##DATA TYPE=MASS SPECTRUM
##ORIGIN=TNO Volatile Compounds in Food - Chemical Concepts
##OWNER=NIST Mass Spectrometry Data Center
Collection (C) 2014 copyright by the U.S. Secretary of Commerce
on behalf of the United States of America. All rights reserved.
##CAS REGISTRY NO=319-86-8
##$NIST MASS SPEC NO=249685
##MOLFORM=C6 H6 Cl6
##MW=288
##$NIST SOURCE=MSDC
##XUNITS=M/Z
##YUNITS=RELATIVE INTENSITY
##XFACTOR=1
##YFACTOR=1
##FIRSTX=25
##LASTX=292
##FIRSTY=52
##MAXX=292
##MINX=25
##MAXY=9999
##MINY=14
##NPOINTS=138
##PEAK TABLE=(XY..XY)
25,52 26,581 35,435 36,488
37,473 38,1573 39,1271 45,14
46,31 47,270 48,246 49,1589
50,2268 51,4537 52,116 53,48
54,20 55,221 56,291 59,22
60,292 61,1707 62,522 63,813
64,119 65,164 68,26 71,42
73,2890 74,1223 75,2924 76,308
77,1824 82,45 83,3680 84,340
85,3870 86,522 87,2093 88,251
89,380 90,97 91,184 92,95
95,214 96,1404 97,372 98,930
99,697 100,233 101,214 102,68
107,176 108,61 109,9999 110,429
111,6897 112,937 113,1552 114,237
115,48 117,52 119,182 120,109
121,1579 122,697 123,1084 124,544
125,169 126,85 130,25 131,176
132,26 133,543 134,286 135,658
136,195 137,206 138,35 139,40
143,829 144,111 145,2350 146,1485
147,1689 148,1087 149,567 150,169
151,31 155,117 156,1369 157,655
158,1133 159,610 160,347 161,183
162,45 167,40 168,69 169,336
170,132 171,229 172,22 173,74
179,32 180,116 181,8902 182,776
183,9015 184,653 185,2714 186,209
187,343 188,45 191,44 193,50
205,25 216,1758 217,7158 218,2260
219,9507 220,1525 221,4384 222,490
223,918 224,69 225,69 252,585
253,85 254,904 255,68 256,668
257,82 258,220 260,31 288,22
290,48 292,29
##END=
