##TITLE=3-Piperidinecarboxamide, N,N-diethyl-
##JCAMP-DX=4.24
##DATA TYPE=MASS SPECTRUM
##ORIGIN=Insect Chem. Ecol. Lab., USDA, Beltsville, MD 20705
##OWNER=NIST Mass Spectrometry Data Center
Collection (C) 2014 copyright by the U.S. Secretary of Commerce
on behalf of the United States of America. All rights reserved.
##CAS REGISTRY NO=3367-95-1
##$NIST MASS SPEC NO=131971
##MOLFORM=C10 H20 N2 O
##MW=184
##$NIST SOURCE=MSDC
##XUNITS=M/Z
##YUNITS=RELATIVE INTENSITY
##XFACTOR=1
##YFACTOR=1
##FIRSTX=41
##LASTX=186
##FIRSTY=783
##MAXX=186
##MINX=41
##MAXY=9999
##MINY=4
##NPOINTS=119
##PEAK TABLE=(XY..XY)
41,783 42,1990 43,639 44,2058
45,82 46,118 47,30 49,35
50,13 51,37 52,44 53,308
54,489 55,2201 56,2325 57,1745
58,1687 59,90 60,158 61,20
62,10 63,14 64,14 65,51
66,25 67,283 68,836 69,413
70,1109 71,1267 72,5324 73,396
74,1638 75,79 76,14 77,79
78,58 79,28 80,200 81,197
82,1431 83,3600 84,9999 85,2112
86,676 87,77 88,209 89,12
90,12 91,114 92,37 93,21
94,113 95,91 96,2069 97,417
98,1924 99,185 100,1352 101,118
102,755 103,47 106,52 107,14
108,78 109,41 110,874 111,4121
112,5819 113,751 114,128 115,158
116,198 117,35 118,12 120,4
121,4 122,20 123,17 124,178
125,63 126,820 127,169 128,3647
129,721 130,59 136,14 137,15
138,306 139,99 140,677 141,279
142,594 143,145 144,18 147,4
148,19 149,30 150,38 151,36
152,26 153,51 154,316 155,141
156,219 157,46 165,25 166,11
167,48 168,56 169,735 170,172
171,25 181,12 182,28 183,347
184,2909 185,345 186,20
##END=
