##TITLE=Clotiazepam
##JCAMP-DX=4.24
##DATA TYPE=MASS SPECTRUM
##ORIGIN=Patti Price, Georgia Bureau of Investigation, Decatur, Georgia
##OWNER=NIST Mass Spectrometry Data Center
Collection (C) 2014 copyright by the U.S. Secretary of Commerce
on behalf of the United States of America. All rights reserved.
##CAS REGISTRY NO=33671-46-4
##$NIST MASS SPEC NO=248214
##MOLFORM=C16 H15 Cl N2 O S
##MW=318
##$NIST SOURCE=MSDC
##XUNITS=M/Z
##YUNITS=RELATIVE INTENSITY
##XFACTOR=1
##YFACTOR=1
##FIRSTX=42
##LASTX=323
##FIRSTY=290
##MAXX=323
##MINX=42
##MAXY=9999
##MINY=10
##NPOINTS=191
##PEAK TABLE=(XY..XY)
42,290 44,10 45,540 46,20
50,120 51,300 52,100 53,140
54,100 58,120 59,70 62,190
63,430 64,170 65,320 66,500
67,70 69,360 70,100 71,260
72,130 73,420 74,280 75,510
76,220 77,400 78,170 79,220
80,100 81,50 82,90 83,220
84,140 85,140 86,140 87,200
88,120 89,570 90,210 91,250
92,210 93,190 94,70 95,70
96,120 97,350 98,120 99,340
100,50 101,140 102,170 103,90
104,50 105,110 106,290 108,90
109,120 110,210 111,330 112,320
113,460 114,300 115,240 116,220
117,110 118,60 120,1000 121,40
122,110 123,830 125,640 126,300
127,500 128,230 129,40 131,220
132,70 134,160 136,50 137,170
138,330 139,340 140,440 141,120
142,10 144,40 145,230 146,90
147,20 148,20 149,320 150,270
151,340 152,700 153,320 154,140
155,160 156,30 157,50 164,100
165,140 166,700 167,270 168,80
170,50 171,160 172,30 173,30
178,190 179,240 180,130 181,170
182,60 183,20 184,180 185,90
186,60 187,40 196,120 197,80
198,240 199,120 200,20 201,50
202,100 203,20 204,20 205,60
206,50 212,330 213,410 214,90
215,40 224,160 225,280 226,110
227,70 228,330 229,90 231,10
232,540 233,100 234,230 235,20
239,400 240,240 241,10 248,200
249,50 250,40 253,160 254,50
255,280 256,50 259,100 260,140
261,30 262,290 263,60 264,60
266,10 267,30 268,220 269,20
273,10 274,550 275,2121 276,540
277,740 278,100 283,1581 284,160
285,90 289,9999 290,2422 291,3953
292,850 293,220 294,30 303,400
304,50 305,100 306,30 316,10
317,1581 318,7676 319,1941 320,3002
321,510 322,140 323,20
##END=
