##TITLE=o,p'-DDE
##JCAMP-DX=4.24
##DATA TYPE=MASS SPECTRUM
##ORIGIN=NIST Mass Spectrometry Data Center, 1990.
##OWNER=NIST Mass Spectrometry Data Center
Collection (C) 2014 copyright by the U.S. Secretary of Commerce
on behalf of the United States of America. All rights reserved.
##CAS REGISTRY NO=3424-82-6
##$NIST MASS SPEC NO=119012
##MOLFORM=C14 H8 Cl4
##MW=316
##$NIST SOURCE=MSDC
##XUNITS=M/Z
##YUNITS=RELATIVE INTENSITY
##XFACTOR=1
##YFACTOR=1
##FIRSTX=14
##LASTX=324
##FIRSTY=19
##MAXX=324
##MINX=14
##MAXY=9999
##MINY=2
##NPOINTS=173
##PEAK TABLE=(XY..XY)
14,19 15,5 16,2 17,24
18,99 26,13 28,269 29,4
30,11 31,3 32,53 35,22
36,21 37,35 38,53 39,104
40,3 44,5 47,22 49,42
50,253 51,215 52,20 55,7
58,7 60,23 61,82 62,148
63,169 64,15 67,10 68,18
70,24 72,24 73,162 74,405
75,494 76,65 77,27 79,14
80,15 81,71 83,10 84,64
85,124 86,202 87,504 88,320
92,136 93,105 94,29 95,9
96,28 97,96 98,248 99,340
100,71 101,35 102,12 105,891
106,285 108,59 109,124 110,250
111,232 112,37 113,63 114,22
119,13 120,28 121,59 122,449
123,608 124,262 125,160 126,72
127,72 128,63 129,15 131,8
132,20 133,61 134,83 135,143
136,63 137,164 138,61 139,8
140,312 141,328 142,107 144,12
145,19 146,43 147,77 148,56
149,232 150,272 151,63 152,12
158,20 159,36 160,115 161,73
162,77 163,139 164,55 165,8
170,186 171,46 172,150 173,126
174,523 175,707 176,1955 177,330
178,25 182,19 183,20 184,91
185,63 186,85 187,23 188,14
194,15 195,8 196,16 197,20
198,22 199,107 200,22 201,40
206,12 207,23 208,26 210,850
211,267 212,306 213,87 214,16
218,8 219,17 220,59 221,14
222,27 224,13 233,26 235,18
244,102 246,9999 247,1862 248,6217
249,972 250,1008 251,156 252,15
280,301 281,532 282,335 283,480
284,150 285,169 286,38 287,20
316,3238 317,674 318,3948 319,667
320,1824 321,313 322,472 323,63
324,42
##END=
