##TITLE=3,3',4-Trichloro-1,1'-biphenyl
##JCAMP-DX=4.24
##DATA TYPE=MASS SPECTRUM
##ORIGIN=N. Todua, WGM, MMES
##OWNER=NIST Mass Spectrometry Data Center
Collection (C) 2014 copyright by the U.S. Secretary of Commerce
on behalf of the United States of America. All rights reserved.
##CAS REGISTRY NO=37680-69-6
##$NIST MASS SPEC NO=334694
##MOLFORM=C12 H7 Cl3
##MW=256
##$NIST SOURCE=MSDC
##XUNITS=M/Z
##YUNITS=RELATIVE INTENSITY
##XFACTOR=1
##YFACTOR=1
##FIRSTX=41
##LASTX=262
##FIRSTY=61
##MAXX=262
##MINX=41
##MAXY=9999
##MINY=61
##NPOINTS=110
##PEAK TABLE=(XY..XY)
41,61 44,245 47,183 49,306
50,795 51,550 52,183 55,183
56,183 60,245 61,428 62,673
63,489 64,122 68,122 69,61
71,122 72,122 73,489 74,1101
75,1967 77,245 78,61 79,122
81,367 82,122 83,306 85,367
86,489 87,428 88,183 89,183
93,1345 94,550 96,183 97,367
98,612 99,612 100,306 101,306
102,183 107,122 108,183 109,367
110,1101 111,795 112,245 114,183
115,183 116,183 120,183 121,183
122,306 123,489 124,183 125,306
126,245 128,489 129,489 130,306
131,183 132,183 133,183 134,245
135,306 136,183 138,183 145,183
146,183 147,245 148,245 149,550
150,1784 151,1284 152,367 153,183
159,183 160,367 161,183 162,183
170,183 171,183 172,183 173,183
183,183 184,367 185,550 186,5219
187,856 188,1845 189,428 194,245
195,245 196,245 198,245 207,245
220,489 221,183 222,489 223,183
224,183 232,61 254,122 256,9999
257,1529 258,9571 259,1468 260,3068
261,550 262,489
##END=
