##TITLE=1,1'-Biphenyl, 2',3,5-trichloro-
##JCAMP-DX=4.24
##DATA TYPE=MASS SPECTRUM
##ORIGIN=Organic Synthesis Lab, MSU, Moscow.TRC 1360
##OWNER=NIST Mass Spectrometry Data Center
Collection (C) 2014 copyright by the U.S. Secretary of Commerce
on behalf of the United States of America. All rights reserved.
##CAS REGISTRY NO=37680-68-5
##$NIST MASS SPEC NO=326709
##MOLFORM=C12 H7 Cl3
##MW=256
##$NIST SOURCE=MSDC
##XUNITS=M/Z
##YUNITS=RELATIVE INTENSITY
##XFACTOR=1
##YFACTOR=1
##FIRSTX=41
##LASTX=263
##FIRSTY=32
##MAXX=263
##MINX=41
##MAXY=9999
##MINY=16
##NPOINTS=116
##PEAK TABLE=(XY..XY)
41,32 43,29 44,92 46,19
47,44 48,22 49,103 50,481
51,308 52,37 55,28 56,32
57,27 58,16 60,30 61,298
62,413 63,202 64,25 67,25
68,42 72,50 73,280 74,761
75,1452 77,64 78,17 79,70
80,195 81,60 83,20 84,134
85,198 86,323 87,210 88,30
90,17 92,427 93,1119 94,318
96,32 97,280 98,495 99,443
100,103 101,123 102,38 107,22
108,62 109,178 110,860 111,613
112,152 113,61 114,274 115,20
116,25 120,48 121,74 122,174
123,287 124,90 125,189 126,99
127,17 128,294 129,261 130,85
131,41 132,26 133,46 134,29
135,64 136,132 137,42 138,63
146,65 147,75 148,79 149,355
150,1610 151,1282 152,188 159,65
160,148 161,54 162,57 170,40
171,17 183,33 184,129 185,375
186,5407 187,800 188,1868 189,250
194,65 195,22 196,56 198,19
219,34 220,320 221,233 222,294
223,149 224,70 225,32 254,30
256,9999 257,1310 258,8756 259,1317
260,2979 261,425 262,373 263,43
##END=
