##TITLE=Cytidine, N-acetyl-
##JCAMP-DX=4.24
##DATA TYPE=MASS SPECTRUM
##ORIGIN=Japan AIST/NIMC Database- Spectrum MS-IW-2400
##OWNER=NIST Mass Spectrometry Data Center
Collection (C) 2014 copyright by the U.S. Secretary of Commerce
on behalf of the United States of America. All rights reserved.
##CAS REGISTRY NO=3768-18-1
##$NIST MASS SPEC NO=239363
##MOLFORM=C11 H15 N3 O6
##MW=285
##$NIST SOURCE=MSDC
##XUNITS=M/Z
##YUNITS=RELATIVE INTENSITY
##XFACTOR=1
##YFACTOR=1
##FIRSTX=14
##LASTX=286
##FIRSTY=20
##MAXX=286
##MINX=14
##MAXY=9999
##MINY=10
##NPOINTS=151
##PEAK TABLE=(XY..XY)
14,20 15,129 17,90 18,349
19,20 26,40 27,119 28,399
29,219 30,70 31,159 32,10
38,10 39,90 40,139 41,309
42,599 43,3459 44,219 45,159
46,10 47,10 51,10 52,179
53,80 54,149 55,369 56,169
57,669 58,99 59,40 60,139
61,339 62,10 65,10 66,60
67,229 68,679 69,1199 70,319
71,189 72,30 73,399 74,50
75,10 78,10 79,149 80,40
81,149 82,70 83,239 84,169
85,339 86,169 87,50 89,10
93,20 94,439 95,769 96,429
97,519 98,60 99,50 100,10
101,30 102,10 103,70 105,10
107,10 108,10 109,70 110,90
111,1169 112,9999 113,659 114,139
115,219 116,60 117,10 120,10
121,20 122,199 123,119 124,90
125,60 126,20 127,50 128,20
132,10 133,10 134,30 135,20
136,139 137,40 138,159 139,139
140,4989 141,359 142,40 143,20
145,10 147,20 148,10 149,20
150,10 151,2639 152,279 153,70
154,529 155,40 156,30 157,50
164,30 165,10 166,50 167,10
168,10 169,70 170,479 171,40
172,10 175,90 176,20 177,10
178,80 179,10 180,20 182,109
183,20 190,239 191,20 193,50
194,40 196,40 208,149 209,20
212,40 213,10 217,80 218,10
224,10 226,40 243,10 250,149
251,20 256,20 259,30 267,30
268,10 285,60 286,10
##END=
