##TITLE=Butanilicaine
##JCAMP-DX=4.24
##DATA TYPE=MASS SPECTRUM
##ORIGIN=Patti Price, Georgia Bureau of Investigation, Decatur, Georgia
##OWNER=NIST Mass Spectrometry Data Center
Collection (C) 2014 copyright by the U.S. Secretary of Commerce
on behalf of the United States of America. All rights reserved.
##CAS REGISTRY NO=3785-21-5
##$NIST MASS SPEC NO=248290
##MOLFORM=C13 H19 Cl N2 O
##MW=254
##$NIST SOURCE=MSDC
##XUNITS=M/Z
##YUNITS=RELATIVE INTENSITY
##XFACTOR=1
##YFACTOR=1
##FIRSTX=42
##LASTX=258
##FIRSTY=570
##MAXX=258
##MINX=42
##MAXY=9999
##MINY=10
##NPOINTS=124
##PEAK TABLE=(XY..XY)
42,570 44,2161 49,10 50,40
51,190 52,70 53,50 54,20
55,120 56,180 57,400 58,20
60,10 62,20 63,110 64,40
65,60 66,10 67,10 68,20
69,10 70,100 71,200 72,3022
73,160 74,30 75,80 76,90
77,960 78,250 79,100 80,10
81,10 82,10 83,10 84,170
85,20 86,9999 87,650 88,680
89,230 90,60 91,120 92,10
95,10 96,10 97,10 98,10
99,40 100,10 101,20 102,80
103,40 104,380 105,120 106,720
107,160 111,20 112,30 113,90
114,30 115,30 116,30 117,80
118,40 119,10 120,10 123,10
125,50 126,10 127,30 128,10
131,10 132,80 133,60 134,70
135,10 137,10 138,90 139,50
140,1010 141,3042 142,720 143,1070
144,150 145,10 146,100 147,70
148,90 151,10 152,50 153,10
154,660 155,60 156,190 157,20
160,10 161,10 162,30 163,10
164,10 166,20 167,60 168,150
169,30 170,50 183,270 184,40
185,90 187,10 209,40 210,10
211,450 212,50 213,120 214,20
217,30 218,150 219,930 220,110
254,120 255,20 256,30 258,10
##END=
