##TITLE=p-Dimethylamino-m-nitroazobenzene
##JCAMP-DX=4.24
##DATA TYPE=MASS SPECTRUM
##ORIGIN=Japan AIST/NIMC Database- Spectrum MS-NW-5790
##OWNER=NIST Mass Spectrometry Data Center
Collection (C) 2014 copyright by the U.S. Secretary of Commerce
on behalf of the United States of America. All rights reserved.
##CAS REGISTRY NO=3837-55-6
##$NIST MASS SPEC NO=232798
##MOLFORM=C14 H14 N4 O2
##MW=270
##$NIST SOURCE=MSDC
##XUNITS=M/Z
##YUNITS=RELATIVE INTENSITY
##XFACTOR=1
##YFACTOR=1
##FIRSTX=15
##LASTX=273
##FIRSTY=199
##MAXX=273
##MINX=15
##MAXY=9999
##MINY=10
##NPOINTS=155
##PEAK TABLE=(XY..XY)
15,199 26,30 27,109 28,149
29,30 30,80 37,50 38,109
39,499 40,50 41,189 42,2939
43,159 44,169 45,40 46,10
49,10 50,649 51,389 52,199
53,99 54,70 55,90 56,20
57,50 58,20 59,20 61,30
62,109 63,529 64,299 65,489
66,219 67,109 68,159 69,109
70,20 71,40 72,10 73,70
74,129 75,589 76,769 77,1879
78,889 79,1339 80,229 81,119
82,40 83,20 84,10 85,20
87,10 88,30 89,50 90,399
91,839 92,699 93,539 94,119
95,20 96,20 97,20 98,20
99,10 102,50 103,189 104,1039
105,1979 106,359 107,40 108,60
109,20 110,10 111,30 112,20
113,10 114,10 115,20 116,20
117,80 118,489 119,869 120,9999
121,969 122,209 123,30 124,10
125,20 126,10 127,10 128,20
129,20 130,20 131,20 132,20
133,199 134,159 135,129 136,90
137,20 138,40 139,40 140,20
141,10 144,10 145,40 146,50
147,10 148,1649 149,159 150,30
151,50 152,90 153,50 154,30
165,20 166,10 167,30 168,20
169,10 171,10 178,10 179,30
180,40 181,30 182,10 183,10
184,10 194,20 195,60 196,70
197,20 208,10 209,20 210,10
211,10 222,20 223,30 224,20
240,70 241,60 242,50 243,10
252,20 253,10 254,60 255,20
256,10 268,10 269,129 270,6019
271,1069 272,119 273,10
##END=
