##TITLE=Prenylamine
##JCAMP-DX=4.24
##DATA TYPE=MASS SPECTRUM
##ORIGIN=Patti Price, Georgia Bureau of Investigation, Decatur, Georgia
##OWNER=NIST Mass Spectrometry Data Center
Collection (C) 2014 copyright by the U.S. Secretary of Commerce
on behalf of the United States of America. All rights reserved.
##CAS REGISTRY NO=390-64-7
##$NIST MASS SPEC NO=248510
##MOLFORM=C24 H27 N
##MW=329
##$NIST SOURCE=MSDC
##XUNITS=M/Z
##YUNITS=RELATIVE INTENSITY
##XFACTOR=1
##YFACTOR=1
##FIRSTX=44
##LASTX=328
##FIRSTY=530
##MAXX=328
##MINX=44
##MAXY=9999
##MINY=10
##NPOINTS=104
##PEAK TABLE=(XY..XY)
44,530 50,80 51,360 52,50
53,50 54,70 55,30 56,1040
57,550 58,9999 59,390 63,230
64,50 65,1060 66,60 67,20
68,60 69,20 70,280 71,130
73,10 74,20 75,60 76,80
77,710 78,260 79,110 80,20
82,10 87,10 88,10 89,220
90,80 91,6155 92,680 93,30
99,10 101,10 102,140 103,330
104,140 105,240 106,50 113,20
114,10 115,1641 116,240 117,820
118,120 119,260 120,50 126,30
127,50 128,200 130,70 132,110
133,50 134,110 135,10 139,140
140,10 141,90 142,10 143,10
144,30 145,10 146,130 147,180
148,160 150,10 151,170 152,1231
153,230 160,30 163,90 164,180
165,1991 166,720 167,2001 168,320
176,60 178,340 179,200 180,60
182,10 189,30 190,20 191,50
192,30 193,130 194,60 195,30
206,10 208,20 222,90 223,10
234,20 236,350 237,80 238,7306
239,1311 240,100 327,40 328,40
##END=
