##TITLE=1,1'-Biphenyl, 2,2',3',4,5-Pentachloro-
##JCAMP-DX=4.24
##DATA TYPE=MASS SPECTRUM
##ORIGIN=T.L.Hayes, Battelle Columbus Laboratories, Columbus, OH 43221
##OWNER=NIST Mass Spectrometry Data Center
Collection (C) 2014 copyright by the U.S. Secretary of Commerce
on behalf of the United States of America. All rights reserved.
##CAS REGISTRY NO=41464-51-1
##$NIST MASS SPEC NO=80773
##MOLFORM=C12 H5 Cl5
##MW=324
##$NIST SOURCE=MSDC
##XUNITS=M/Z
##YUNITS=RELATIVE INTENSITY
##XFACTOR=1
##YFACTOR=1
##FIRSTX=33
##LASTX=333
##FIRSTY=71
##MAXX=333
##MINX=33
##MAXY=9999
##MINY=9
##NPOINTS=154
##PEAK TABLE=(XY..XY)
33,71 34,67 35,221 36,517
37,410 38,319 39,291 40,377
41,35 42,75 44,155 47,142
48,29 49,382 50,626 51,245
55,124 56,74 57,94 59,19
60,324 61,1361 62,586 63,153
67,87 68,15 69,10 71,103
72,499 73,2113 74,2398 75,830
79,563 80,10 81,40 83,67
84,943 85,1047 86,845 87,303
91,811 92,2483 93,700 94,49
96,226 97,1073 98,1624 99,781
103,10 105,36 106,23 107,330
108,866 109,4253 110,3084 111,912
115,190 116,97 119,186 120,331
121,443 122,892 123,788 124,54
127,5751 128,5104 129,1869 132,270
133,539 134,342 135,211 136,71
142,9 143,87 144,1028 145,1559
146,1238 147,1032 148,539 149,521
157,164 158,269 159,192 160,92
161,36 162,720 163,1183 164,809
165,259 166,31 167,46 168,52
169,167 170,125 171,115 172,68
173,21 180,24 181,119 182,257
183,770 184,3386 185,638 186,1013
187,101 193,44 194,180 195,113
196,92 197,45 203,9 204,142
205,44 206,134 207,254 208,101
209,43 217,35 218,999 219,816
220,700 221,476 222,162 223,76
232,10 249,10 252,29 254,6816
255,1000 256,6015 257,809 258,1904
259,203 260,182 281,12 283,39
288,115 289,1825 290,403 291,2401
292,353 293,1131 294,152 295,84
324,6289 325,841 326,9999 327,1294
328,6388 329,804 330,2025 331,271
332,315 333,30
##END=
