##TITLE=1H-[1,2,3]Triazole-4-carboxamide, 5-amino-1-(phenylmethyl)-
##JCAMP-DX=4.24
##DATA TYPE=MASS SPECTRUM
##ORIGIN=A.A.Kutin, Moscow, Russia
##OWNER=NIST Mass Spectrometry Data Center
Collection (C) 2014 copyright by the U.S. Secretary of Commerce
on behalf of the United States of America. All rights reserved.
##CAS REGISTRY NO=4342-08-9
##$NIST MASS SPEC NO=272577
##MOLFORM=C10 H11 N5 O
##MW=217
##$NIST SOURCE=MSDC
##XUNITS=M/Z
##YUNITS=RELATIVE INTENSITY
##XFACTOR=1
##YFACTOR=1
##FIRSTX=34
##LASTX=219
##FIRSTY=9
##MAXX=219
##MINX=34
##MAXY=9999
##MINY=1
##NPOINTS=124
##PEAK TABLE=(XY..XY)
34,9 36,1 37,32 38,196
39,1132 40,477 41,585 42,392
43,597 44,1134 45,168 47,5
50,373 51,825 52,245 53,401
54,283 55,2632 56,112 57,102
58,50 59,27 61,40 62,165
63,642 64,204 65,2302 66,176
67,170 68,370 69,166 70,671
71,358 72,33 73,25 74,82
75,103 76,114 77,457 78,141
79,104 80,26 81,63 82,13
83,29 84,143 85,166 86,103
87,36 89,655 91,9999 92,1011
93,85 94,17 95,110 96,12
98,852 99,41 100,15 101,27
102,65 103,121 104,296 105,200
106,239 107,25 109,102 110,12
111,22 112,64 113,10 114,9
115,26 116,253 117,700 118,295
119,109 120,16 121,7 122,2
123,49 124,6 125,11 128,210
129,118 130,23 131,43 132,73
133,44 134,5 136,2 137,36
138,3 139,10 140,11 142,42
143,344 144,1015 145,451 146,66
147,13 148,2 149,11 151,8
153,7 156,54 157,8 159,27
160,71 161,22 162,11 165,20
171,1882 172,365 173,42 174,2
185,3 188,154 189,27 190,13
199,2 217,3273 218,418 219,16
##END=
