##TITLE=Thebacon
##JCAMP-DX=4.24
##DATA TYPE=MASS SPECTRUM
##ORIGIN=Patti Price, Georgia Bureau of Investigation, Decatur, Georgia
##OWNER=NIST Mass Spectrometry Data Center
Collection (C) 2014 copyright by the U.S. Secretary of Commerce
on behalf of the United States of America. All rights reserved.
##CAS REGISTRY NO=466-90-0
##$NIST MASS SPEC NO=248531
##MOLFORM=C20 H23 N O4
##MW=341
##$NIST SOURCE=MSDC
##XUNITS=M/Z
##YUNITS=RELATIVE INTENSITY
##XFACTOR=1
##YFACTOR=1
##FIRSTX=42
##LASTX=344
##FIRSTY=960
##MAXX=344
##MINX=42
##MAXY=9999
##MINY=10
##NPOINTS=239
##PEAK TABLE=(XY..XY)
42,960 43,3463 50,30 51,110
53,180 54,40 55,840 57,110
58,240 59,290 60,90 63,220
64,50 65,200 66,40 67,140
68,130 69,140 70,640 71,140
75,90 76,80 77,540 78,170
79,200 80,90 81,260 82,380
83,100 84,90 85,30 86,30
87,20 88,80 89,250 90,100
91,430 92,80 93,120 94,530
95,120 96,220 97,40 98,50
99,50 100,10 101,80 102,170
103,280 104,80 105,140 106,70
107,190 108,190 109,160 110,90
111,40 112,800 113,130 114,160
115,1371 116,290 117,200 118,140
119,120 120,140 121,200 122,110
123,70 124,340 125,70 126,140
127,710 128,990 129,440 130,200
131,420 132,300 133,140 134,250
135,60 136,150 138,40 139,450
140,180 141,660 142,230 143,360
144,470 145,250 146,480 147,250
148,140 149,100 150,80 151,280
152,780 153,680 154,820 155,500
156,290 157,340 158,260 159,380
160,380 161,470 162,2552 163,400
164,110 165,670 166,230 167,360
168,420 169,530 170,550 171,510
172,280 173,210 174,280 175,320
176,230 177,220 178,350 179,200
180,150 181,870 182,470 183,430
184,490 185,1040 186,470 187,510
188,290 189,480 190,820 191,330
192,420 193,250 194,280 195,420
196,330 197,690 198,600 199,660
200,640 201,410 202,260 203,130
204,1000 205,220 206,80 207,170
208,130 209,1151 210,650 211,620
212,560 213,620 214,870 215,310
216,410 217,210 218,160 220,90
222,210 223,370 224,530 225,2031
226,670 227,990 228,610 229,350
230,480 231,80 233,20 234,70
235,90 236,150 237,140 238,450
239,410 240,1531 241,2061 242,3583
243,950 244,270 246,10 248,40
249,40 250,180 251,130 252,240
253,160 254,390 255,320 256,420
257,130 258,70 262,10 263,10
264,140 265,70 266,610 267,440
268,300 269,130 270,490 271,110
272,30 278,10 280,610 281,300
282,2242 283,640 284,2512 285,520
286,100 296,70 297,50 298,9999
299,2572 300,320 301,50 308,20
309,10 311,20 312,30 313,20
322,20 324,40 326,1871 327,350
329,10 339,40 340,1581 341,9278
342,1991 343,280 344,30
##END=
