##TITLE=Isomethadone
##JCAMP-DX=4.24
##DATA TYPE=MASS SPECTRUM
##ORIGIN=Patti Price, Georgia Bureau of Investigation, Decatur, Georgia
##OWNER=NIST Mass Spectrometry Data Center
Collection (C) 2014 copyright by the U.S. Secretary of Commerce
on behalf of the United States of America. All rights reserved.
##CAS REGISTRY NO=466-40-0
##$NIST MASS SPEC NO=248417
##MOLFORM=C21 H27 N O
##MW=309
##$NIST SOURCE=MSDC
##XUNITS=M/Z
##YUNITS=RELATIVE INTENSITY
##XFACTOR=1
##YFACTOR=1
##FIRSTX=50
##LASTX=310
##FIRSTY=10
##MAXX=310
##MINX=50
##MAXY=9999
##MINY=10
##NPOINTS=143
##PEAK TABLE=(XY..XY)
50,10 51,30 52,10 53,10
54,10 55,10 56,70 57,420
58,9999 59,360 63,30 64,10
65,60 67,10 68,10 69,10
70,70 71,80 72,10 73,10
75,10 76,10 77,90 78,20
79,10 80,10 82,10 83,10
84,60 85,170 86,90 87,10
88,10 89,40 90,10 91,370
92,30 94,10 95,10 96,10
100,10 102,50 103,60 104,10
105,40 106,10 107,10 110,10
111,10 113,10 114,10 115,450
116,120 117,90 118,10 121,10
123,10 126,10 127,40 128,70
129,60 130,50 131,20 132,10
133,10 134,10 139,50 140,10
141,10 142,10 143,10 144,10
145,10 147,10 149,10 151,20
152,110 153,20 154,10 155,10
158,10 159,10 162,10 163,50
164,60 165,360 166,80 167,50
168,10 171,10 172,10 173,10
174,10 175,10 176,30 177,20
178,260 179,150 180,20 181,10
187,10 188,10 189,50 190,40
191,80 192,20 193,210 194,100
195,10 200,10 201,10 202,10
203,10 204,10 206,10 207,40
208,60 209,10 210,10 216,10
217,10 218,10 219,10 221,10
223,10 224,10 230,10 231,10
234,10 235,10 236,20 246,10
247,10 248,10 262,10 263,10
265,10 266,10 276,10 281,10
308,10 309,20 310,10
##END=
