##TITLE=2'-Carboxy-2-hydroxy-4-methoxybenzophenone
##JCAMP-DX=4.24
##DATA TYPE=MASS SPECTRUM
##ORIGIN=Japan AIST/NIMC Database- Spectrum MS-IW-6070
##OWNER=NIST Mass Spectrometry Data Center
Collection (C) 2014 copyright by the U.S. Secretary of Commerce
on behalf of the United States of America. All rights reserved.
##CAS REGISTRY NO=4756-45-0
##$NIST MASS SPEC NO=242999
##MOLFORM=C15 H12 O5
##MW=272
##$NIST SOURCE=MSDC
##XUNITS=M/Z
##YUNITS=RELATIVE INTENSITY
##XFACTOR=1
##YFACTOR=1
##FIRSTX=15
##LASTX=275
##FIRSTY=30
##MAXX=275
##MINX=15
##MAXY=9999
##MINY=10
##NPOINTS=174
##PEAK TABLE=(XY..XY)
15,30 17,30 18,109 27,40
28,389 29,20 31,30 32,70
38,40 39,249 40,20 41,119
42,10 43,50 44,99 45,50
46,10 50,159 51,319 52,199
53,189 54,30 55,149 56,10
57,40 59,20 61,20 62,70
63,239 64,129 65,699 66,109
67,60 68,10 69,329 70,70
71,30 73,10 74,80 75,149
76,349 77,419 78,70 79,189
80,209 81,50 82,10 83,30
84,40 85,20 86,30 87,40
88,30 89,60 90,20 91,70
92,90 93,649 94,159 95,559
96,40 97,30 98,40 99,40
100,40 101,99 102,50 103,30
104,219 105,239 106,50 107,109
108,629 109,60 110,20 111,30
112,40 113,179 114,60 115,169
116,20 119,50 120,60 121,389
122,129 123,189 124,269 125,70
126,119 127,399 128,179 129,50
130,10 131,10 133,20 134,20
135,20 136,419 137,40 138,50
139,339 140,99 141,70 142,30
143,20 148,60 149,1039 150,169
151,6559 152,619 153,119 154,40
155,289 156,80 157,30 158,10
159,10 165,20 166,20 167,159
168,329 169,129 170,60 171,50
172,10 173,10 179,20 180,109
181,109 182,80 183,1059 184,369
185,60 186,10 187,20 194,60
195,169 196,629 197,929 198,299
199,60 200,10 208,10 209,60
210,169 211,849 212,269 213,99
214,10 215,10 222,10 223,789
224,179 225,669 226,3489 227,5739
228,939 229,119 230,10 237,99
238,30 239,219 240,60 241,20
253,8939 254,8629 255,1609 256,309
257,30 271,299 272,9999 273,1689
274,239 275,20
##END=
