##TITLE=Dimetacrine
##JCAMP-DX=4.24
##DATA TYPE=MASS SPECTRUM
##ORIGIN=Tox21 Consortium/NIST Mass Spectrometry Data Center, 2012
##OWNER=NIST Mass Spectrometry Data Center
Collection (C) 2014 copyright by the U.S. Secretary of Commerce
on behalf of the United States of America. All rights reserved.
##CAS REGISTRY NO=4757-55-5
##$NIST MASS SPEC NO=408662
##MOLFORM=C20 H26 N2
##MW=294
##$NIST SOURCE=MSDC
##XUNITS=M/Z
##YUNITS=RELATIVE INTENSITY
##XFACTOR=1
##YFACTOR=1
##FIRSTX=15
##LASTX=296
##FIRSTY=20
##MAXX=296
##MINX=15
##MAXY=9999
##MINY=10
##NPOINTS=155
##PEAK TABLE=(XY..XY)
15,20 27,30 28,50 29,70
30,210 39,70 40,10 41,130
42,591 43,210 44,240 45,10
50,20 51,60 52,20 53,10
54,10 55,20 56,200 57,170
58,9459 59,360 62,10 63,50
64,20 65,40 66,10 68,30
69,10 70,210 71,180 72,40
74,10 75,40 76,40 77,120
78,20 82,30 84,250 85,280
86,9999 87,601 88,40 89,100
90,50 91,60 92,10 95,60
96,40 98,10 99,10 100,10
101,50 102,90 103,40 105,10
106,10 108,30 109,20 110,10
113,30 114,20 115,100 116,40
117,30 118,20 125,20 126,40
127,40 128,90 129,20 130,40
131,10 132,10 133,10 137,10
138,20 139,200 140,90 141,20
142,10 143,10 144,10 147,140
149,10 150,50 151,100 152,160
153,40 154,20 162,10 163,70
164,110 165,380 166,140 167,160
168,30 175,10 176,70 177,100
178,220 179,140 180,170 181,40
182,10 188,10 189,40 190,210
191,530 192,1101 193,1361 194,691
195,100 196,10 201,10 202,20
203,30 204,310 205,110 206,350
207,480 208,400 209,100 210,20
215,10 216,30 217,80 218,170
219,60 220,891 221,210 222,210
223,40 224,10 228,10 230,20
231,20 232,50 233,20 234,360
235,80 236,50 237,10 248,40
249,20 250,10 263,10 277,10
279,3533 280,761 281,80 282,10
294,1491 295,340 296,40
##END=
