##TITLE=Tetrabromo-1,4-benzoquinone
##JCAMP-DX=4.24
##DATA TYPE=MASS SPECTRUM
##ORIGIN=Chemical Concepts
##OWNER=NIST Mass Spectrometry Data Center
Collection (C) 2014 copyright by the U.S. Secretary of Commerce
on behalf of the United States of America. All rights reserved.
##CAS REGISTRY NO=488-48-2
##$NIST MASS SPEC NO=162224
##MOLFORM=C6 Br4 O2
##MW=420
##$NIST SOURCE=MSDC
##XUNITS=M/Z
##YUNITS=RELATIVE INTENSITY
##XFACTOR=1
##YFACTOR=1
##FIRSTX=25
##LASTX=430
##FIRSTY=127
##MAXX=430
##MINX=25
##MAXY=9999
##MINY=1
##NPOINTS=239
##PEAK TABLE=(XY..XY)
25,127 26,11 28,214 30,54
34,2 36,624 37,111 38,9
39,17 42,3 44,119 46,3
48,928 49,393 50,20 52,1428
53,799 54,34 60,639 61,89
62,9 64,19 65,12 66,1
72,17 75,1 76,257 77,81
78,4 79,582 80,119 81,585
82,37 86,2 89,8 90,3
91,743 92,35 93,770 94,11
95,1 96,2 101,1 103,833
104,182 105,844 106,132 107,107
109,137 110,44 111,30 115,203
116,16 117,198 118,40 119,15
120,1 121,7 124,4 127,1204
128,233 129,1188 130,231 131,9024
132,377 133,9206 134,346 135,18
136,3 138,2 139,193 140,15
141,217 142,11 143,23 144,46
145,55 146,21 148,6 150,5
151,2 155,398 156,43 157,377
158,56 159,23 160,45 161,4
162,34 166,4 168,2 169,1
170,15 172,28 173,2 174,9
181,1 182,352 183,188 184,907
185,206 186,381 187,13 188,1
189,1 191,1 194,16 195,8
196,36 197,17 198,23 199,14
200,3 206,556 207,124 208,1134
209,291 210,632 211,147 212,144
213,56 214,77 215,15 216,1
218,29 219,5 220,47 222,23
223,2 228,2 234,16 235,235
236,40 237,405 238,34 239,222
240,26 242,13 246,12 250,1
261,3 262,15 263,1099 264,112
265,2138 266,167 267,1064 268,87
269,11 270,1 271,2 273,8
275,17 277,19 279,9 280,2
282,2 285,359 286,14 287,1007
288,45 289,1019 290,48 291,381
292,19 293,36 295,10 297,7
299,19 301,15 303,6 305,1
310,1 313,725 314,62 315,2086
316,157 317,2131 318,155 319,687
320,49 321,1 330,2 331,1
334,1 341,3316 342,730 343,9930
344,2150 345,9877 346,2042 347,3135
348,656 349,47 350,21 353,10
354,1 355,16 356,1 357,8
361,1 364,15 366,53 368,81
370,40 371,4 372,7 378,3
380,1 382,2 387,15 388,1
389,35 390,1 391,44 392,81
393,12 394,267 395,13 396,397
397,27 398,265 399,19 400,70
401,1 406,1 408,4 412,2
420,1704 421,128 422,6897 423,411
424,9999 425,655 426,6508 427,421
428,1631 429,95 430,14
##END=
