##TITLE=1H-Cycloprop[e]azulene, 1a,2,3,4,4a,5,6,7b-octahydro-1,1,4,7-tetramethyl-, [1aR-(1a.alpha.,4.alpha.,4a.beta.,7b.alpha.)]-
##JCAMP-DX=4.24
##DATA TYPE=MASS SPECTRUM
##OWNER=NIST Mass Spectrometry Data Center
Collection (C) 2014 copyright by the U.S. Secretary of Commerce
on behalf of the United States of America. All rights reserved.
##CAS REGISTRY NO=489-40-7
##$NIST MASS SPEC NO=22525
##MOLFORM=C15 H24
##MW=204
##$NIST SOURCE=MSDC
##XUNITS=M/Z
##YUNITS=RELATIVE INTENSITY
##XFACTOR=1
##YFACTOR=1
##FIRSTX=15
##LASTX=206
##FIRSTY=60
##MAXX=206
##MINX=15
##MAXY=9999
##MINY=50
##NPOINTS=120
##PEAK TABLE=(XY..XY)
15,60 18,210 26,130 27,1672
29,2002 31,130 37,60 38,60
39,2322 40,400 41,7186 42,510
43,2052 44,50 50,120 51,711
52,330 53,2122 54,250 55,4734
56,330 57,621 58,120 59,110
62,60 63,300 64,220 65,1491
66,400 67,2632 68,240 69,2352
70,210 71,210 72,90 74,110
75,220 76,110 77,3513 78,1001
79,3513 80,701 81,3863 82,420
83,540 84,80 85,70 88,90
89,200 90,120 91,6786 92,1011
93,4034 94,841 95,2332 96,320
97,130 101,80 102,160 103,691
104,400 105,8758 106,1561 107,4034
108,931 109,1792 110,260 111,60
115,971 116,490 117,1351 118,370
119,6836 120,1351 121,2022 122,1041
123,370 124,80 126,60 127,350
128,621 129,581 130,320 131,1211
132,400 133,4734 134,931 135,701
136,190 141,140 142,100 143,160
144,130 145,771 146,370 147,3683
148,1471 149,1321 150,210 151,50
157,60 158,60 159,290 160,350
161,9479 162,1561 163,230 173,80
174,100 175,1121 176,300 177,100
189,7887 190,1231 191,110 202,80
203,260 204,9999 205,1762 206,160
##END=
