##TITLE=2,4,6-Triisopropylbenzoic acid
##JCAMP-DX=4.24
##DATA TYPE=MASS SPECTRUM
##ORIGIN=NIST Mass Spectrometry Data Center
##OWNER=NIST Mass Spectrometry Data Center
Collection (C) 2014 copyright by the U.S. Secretary of Commerce
on behalf of the United States of America. All rights reserved.
##CAS REGISTRY NO=49623-71-4
##$NIST MASS SPEC NO=342986
##MOLFORM=C16 H24 O2
##MW=248
##$NIST SOURCE=MSDC
##XUNITS=M/Z
##YUNITS=RELATIVE INTENSITY
##XFACTOR=1
##YFACTOR=1
##FIRSTX=15
##LASTX=250
##FIRSTY=390
##MAXX=250
##MINX=15
##MAXY=9999
##MINY=20
##NPOINTS=152
##PEAK TABLE=(XY..XY)
15,390 17,30 18,110 19,160
27,1301 29,821 31,80 38,50
39,791 41,2432 43,5675 44,300
45,380 50,110 51,510 52,110
53,350 55,350 56,30 57,130
58,90 59,130 62,70 63,280
64,200 65,430 66,90 67,110
69,140 70,110 71,170 72,110
73,40 74,60 75,160 76,280
77,1001 78,270 79,540 80,100
81,70 82,100 83,130 84,140
85,170 86,150 87,140 88,60
89,230 91,2082 92,320 93,190
94,110 95,250 99,50 100,80
101,110 102,230 103,410 105,981
106,130 107,60 108,30 109,150
113,40 115,1501 116,500 117,971
118,150 119,400 120,60 121,110
127,520 128,1451 129,1141 130,360
131,801 132,140 133,240 134,40
135,70 139,70 141,540 142,400
143,380 144,150 145,540 146,100
147,160 149,420 150,80 151,50
152,160 153,270 154,210 155,520
156,230 157,450 158,140 159,290
160,80 161,210 163,150 165,100
166,30 167,90 168,70 169,470
170,260 171,370 172,140 173,701
174,130 175,240 176,70 177,110
178,20 181,60 182,80 183,70
184,30 185,90 187,851 188,240
189,350 190,100 191,200 197,641
198,140 199,250 200,130 201,130
202,310 203,661 205,1922 206,330
207,50 212,1201 213,260 215,2372
216,420 217,290 218,60 219,50
230,2562 231,981 233,9999 234,1601
235,190 248,3563 249,611 250,60
##END=
