##TITLE=2(3H)-Furanone, dihydro-5-tetradecyl-
##JCAMP-DX=4.24
##DATA TYPE=MASS SPECTRUM
##OWNER=NIST Mass Spectrometry Data Center
Collection (C) 2014 copyright by the U.S. Secretary of Commerce
on behalf of the United States of America. All rights reserved.
##CAS REGISTRY NO=502-26-1
##$NIST MASS SPEC NO=13589
##MOLFORM=C18 H34 O2
##MW=282
##$NIST SOURCE=MSDC
##XUNITS=M/Z
##YUNITS=RELATIVE INTENSITY
##XFACTOR=1
##YFACTOR=1
##FIRSTX=15
##LASTX=284
##FIRSTY=10
##MAXX=284
##MINX=15
##MAXY=9999
##MINY=10
##NPOINTS=203
##PEAK TABLE=(XY..XY)
15,10 17,20 18,40 27,581
28,591 29,2232 30,80 31,30
38,10 39,420 40,80 41,3873
42,811 43,4494 44,270 45,60
50,10 51,10 52,20 53,300
54,520 55,4544 56,2402 57,3133
58,240 59,100 60,210 61,60
62,10 65,50 66,60 67,961
68,941 69,3493 70,1451 71,1291
72,260 73,581 74,50 75,10
77,40 78,20 79,160 80,130
81,1021 82,1261 83,2772 84,1872
85,9999 86,641 87,260 88,50
89,10 91,60 92,20 93,140
94,170 95,951 96,1411 97,2843
98,1251 99,320 100,1201 101,571
102,70 105,40 107,110 108,140
109,530 110,881 111,1641 112,530
113,350 114,961 115,290 116,60
117,10 118,50 119,230 120,60
121,120 122,100 123,500 124,550
125,791 126,430 127,390 128,901
129,290 130,50 131,10 132,10
133,170 134,230 135,160 136,110
137,550 138,410 139,470 140,240
141,300 142,110 143,90 144,30
145,10 147,150 148,160 149,110
150,60 151,400 152,300 153,290
154,170 155,150 156,60 157,70
158,20 161,60 162,50 163,50
164,50 165,210 166,200 167,160
168,100 169,120 170,40 171,50
172,40 173,20 175,70 176,30
177,30 178,20 179,200 180,270
181,150 182,280 183,120 184,30
185,50 186,60 189,30 190,20
191,30 192,20 193,120 194,130
195,80 196,20 197,60 198,30
199,40 200,30 203,20 204,10
205,10 206,20 207,90 208,100
209,50 210,80 211,50 212,20
213,30 214,20 215,10 217,10
218,20 220,931 221,350 222,520
223,260 224,70 225,90 226,20
227,20 229,60 230,30 233,10
235,90 236,90 237,20 239,50
240,30 245,10 246,561 247,140
248,40 249,20 253,40 254,30
255,10 263,30 264,1641 265,420
266,70 267,20 280,20 281,70
282,230 283,90 284,10
##END=
