##TITLE=Benzenehexacarboxylic acid
##JCAMP-DX=4.24
##DATA TYPE=MASS SPECTRUM
##ORIGIN=Chemical Concepts
##OWNER=NIST Mass Spectrometry Data Center
Collection (C) 2014 copyright by the U.S. Secretary of Commerce
on behalf of the United States of America. All rights reserved.
##CAS REGISTRY NO=517-60-2
##$NIST MASS SPEC NO=189335
##MOLFORM=C12 H6 O12
##MW=342
##$NIST SOURCE=MSDC
##XUNITS=M/Z
##YUNITS=RELATIVE INTENSITY
##XFACTOR=1
##YFACTOR=1
##FIRSTX=26
##LASTX=289
##FIRSTY=59
##MAXX=289
##MINX=26
##MAXY=9999
##MINY=17
##NPOINTS=133
##PEAK TABLE=(XY..XY)
26,59 28,532 29,87 30,23
31,26 36,778 37,1254 38,195
39,56 40,33 41,168 42,46
43,199 44,6281 45,388 46,34
48,175 49,153 50,1217 51,489
52,76 53,194 54,32 55,183
56,80 57,204 58,35 59,160
60,478 61,673 62,591 63,55
64,1251 65,247 66,35 67,62
68,33 69,137 70,68 71,111
72,2350 73,2711 74,1593 75,131
76,110 77,216 78,72 79,33
80,28 81,53 82,32 83,92
84,66 85,67 86,38 87,204
88,191 89,252 90,496 91,116
92,38 93,30 95,49 96,35
97,79 98,39 99,17 100,3336
101,1905 102,2464 103,212 104,31
105,24 106,45 107,37 108,20
109,30 111,43 115,32 116,183
117,1076 118,1082 119,96 120,23
128,698 129,114 130,308 131,40
132,34 134,123 141,24 144,33
145,199 146,2893 147,272 148,72
160,56 162,139 171,34 172,5788
173,736 174,3971 175,369 176,55
186,22 188,82 189,30 190,247
191,28 192,30 200,1262 201,138
202,25 204,28 216,30 217,60
218,8206 219,872 220,144 230,65
232,209 233,35 234,120 243,58
244,9999 245,1304 246,233 247,29
262,1410 263,179 264,35 288,185
289,62
##END=
