##TITLE=Naphthalene, 2-hydroxy-6-benzoyl-
##JCAMP-DX=4.24
##DATA TYPE=MASS SPECTRUM
##ORIGIN=NIST Mass Spectrometry Data Center, 1992
##OWNER=NIST Mass Spectrometry Data Center
Collection (C) 2014 copyright by the U.S. Secretary of Commerce
on behalf of the United States of America. All rights reserved.
##CAS REGISTRY NO=52222-87-4
##$NIST MASS SPEC NO=125251
##MOLFORM=C17 H12 O2
##MW=248
##$NIST SOURCE=MSDC
##XUNITS=M/Z
##YUNITS=RELATIVE INTENSITY
##XFACTOR=1
##YFACTOR=1
##FIRSTX=14
##LASTX=251
##FIRSTY=1
##MAXX=251
##MINX=14
##MAXY=9999
##MINY=1
##NPOINTS=118
##PEAK TABLE=(XY..XY)
14,1 26,14 28,14 29,38
38,35 39,169 40,32 41,43
42,20 43,20 44,2 50,249
51,787 52,67 53,27 55,22
56,3 57,16 61,38 62,163
63,457 64,83 65,261 66,30
67,27 70,19 71,11 73,15
74,159 75,185 76,11 77,2092
78,128 79,19 82,41 83,14
84,13 85,17 86,99 87,170
88,247 89,483 90,47 91,16
93,32 94,115 96,16 97,32
98,40 99,71 100,62 101,108
102,34 103,26 104,16 105,1581
106,106 109,85 110,647 113,314
114,616 115,1617 116,152 117,21
122,24 123,18 125,27 126,46
127,24 133,15 135,4 137,20
138,17 139,59 142,412 143,2645
144,287 145,28 149,11 150,31
151,34 152,42 155,1 162,28
163,89 164,40 165,125 166,20
167,14 171,9999 172,1110 173,85
174,26 175,13 176,28 187,61
188,76 189,425 190,163 191,372
192,81 199,13 200,59 201,101
202,94 203,31 209,13 218,107
219,152 220,178 221,46 231,251
232,72 247,1006 248,6619 249,1309
250,141 251,25
##END=
