##TITLE=6-Octadecenoic acid, methyl ester
##JCAMP-DX=4.24
##DATA TYPE=MASS SPECTRUM
##ORIGIN=R.T.HOLMAN,UNIVERSITY OF MINNESOTA
##OWNER=NIST Mass Spectrometry Data Center
Collection (C) 2014 copyright by the U.S. Secretary of Commerce
on behalf of the United States of America. All rights reserved.
##CAS REGISTRY NO=52355-31-4
##$NIST MASS SPEC NO=35996
##MOLFORM=C19 H36 O2
##MW=296
##$NIST SOURCE=MSDC
##XUNITS=M/Z
##YUNITS=RELATIVE INTENSITY
##XFACTOR=1
##YFACTOR=1
##FIRSTX=27
##LASTX=298
##FIRSTY=1500
##MAXX=298
##MINX=27
##MAXY=9999
##MINY=50
##NPOINTS=156
##PEAK TABLE=(XY..XY)
27,1500 28,1200 29,4400 30,100
31,200 32,500 39,2000 40,400
41,9800 42,1600 43,8500 44,400
45,400 51,200 52,200 53,1300
54,2800 55,9700 56,2100 57,4400
58,200 59,2500 60,200 61,100
65,400 66,400 67,4300 68,3100
69,5400 70,1500 71,1900 72,200
73,600 74,9999 75,1600 76,100
77,400 78,200 79,1600 80,1100
81,4700 82,2900 83,4500 84,5500
85,1500 86,100 87,5300 88,700
89,100 91,600 92,200 93,800
94,800 95,3500 96,4700 97,4400
98,3400 99,500 100,200 101,1000
102,200 105,200 106,100 107,300
108,300 109,1400 110,2400 111,2100
112,600 113,400 114,500 115,800
116,200 119,300 120,100 121,500
122,200 123,1800 124,1000 125,1000
126,200 127,400 128,500 129,50
130,100 133,200 134,200 135,400
136,100 137,900 138,800 139,400
140,100 141,700 142,200 143,700
144,100 147,200 148,200 149,200
150,100 151,500 152,700 153,200
154,100 155,200 156,100 157,200
158,100 161,100 162,100 163,100
164,100 165,300 166,500 167,200
169,300 171,100 175,100 179,200
180,1100 181,300 183,100 185,100
193,200 194,300 195,100 199,200
200,100 207,100 208,100 213,100
214,100 220,300 221,200 222,1400
223,300 227,200 228,100 235,200
236,200 239,100 241,100 246,200
247,200 253,100 255,100 264,2400
265,1100 266,200 267,100 270,200
278,100 296,304 297,100 298,100
##END=
