##TITLE=4,5-Dichloro-ortho-phenylenediamine
##JCAMP-DX=4.24
##DATA TYPE=MASS SPECTRUM
##ORIGIN=NIST Mass Spectrometry Data Center, 1994
##OWNER=NIST Mass Spectrometry Data Center
Collection (C) 2014 copyright by the U.S. Secretary of Commerce
on behalf of the United States of America. All rights reserved.
##CAS REGISTRY NO=5348-42-5
##$NIST MASS SPEC NO=133751
##MOLFORM=C6 H6 Cl2 N2
##MW=176
##$NIST SOURCE=MSDC
##XUNITS=M/Z
##YUNITS=RELATIVE INTENSITY
##XFACTOR=1
##YFACTOR=1
##FIRSTX=14
##LASTX=181
##FIRSTY=13
##MAXX=181
##MINX=14
##MAXY=9999
##MINY=13
##NPOINTS=108
##PEAK TABLE=(XY..XY)
14,13 16,34 17,42 18,54
26,42 28,1124 29,101 32,34
35,106 36,96 37,220 38,231
39,144 40,136 41,193 42,74
43,191 44,26 47,63 48,79
49,279 50,735 51,927 52,1136
53,550 54,146 55,46 56,125
58,35 60,109 61,298 62,547
63,305 64,156 65,202 66,57
67,36 69,44 70,405 71,223
72,198 73,189 74,166 75,382
76,1362 77,408 78,1329 79,240
80,27 82,82 83,27 84,100
85,339 86,227 87,454 88,797
89,547 90,125 96,66 97,343
98,72 99,239 100,73 101,84
102,41 103,107 104,90 105,523
106,280 107,106 109,76 110,89
112,574 114,2758 115,226 116,792
117,41 121,214 122,25 123,167
124,247 125,60 126,88 132,65
133,39 134,67 135,87 137,47
139,183 141,1655 142,179 143,593
144,45 148,1829 149,233 150,1130
151,116 152,189 159,158 161,106
163,33 175,1817 176,9999 177,1827
178,6709 179,617 180,1056 181,77
##END=
