##TITLE=Thieno[3,2-c]pyridine, 5-[(2-chlorophenyl)methyl]-4,5,6,7-tetrahydro-
##JCAMP-DX=4.24
##DATA TYPE=MASS SPECTRUM
##ORIGIN=AAFS Toxicology Section MS DB Committee, U. Alberta, Canada
##OWNER=NIST Mass Spectrometry Data Center
Collection (C) 2014 copyright by the U.S. Secretary of Commerce
on behalf of the United States of America. All rights reserved.
##CAS REGISTRY NO=55142-85-3
##$NIST MASS SPEC NO=247263
##MOLFORM=C14 H14 Cl N S
##MW=263
##$NIST SOURCE=MSDC
##XUNITS=M/Z
##YUNITS=RELATIVE INTENSITY
##XFACTOR=1
##YFACTOR=1
##FIRSTX=41
##LASTX=268
##FIRSTY=110
##MAXX=268
##MINX=41
##MAXY=9999
##MINY=10
##NPOINTS=125
##PEAK TABLE=(XY..XY)
41,110 42,470 43,10 45,340
46,10 47,20 48,10 49,10
50,100 51,240 52,70 53,70
54,20 55,10 56,10 57,10
58,110 59,40 60,10 61,10
62,60 63,310 64,70 65,380
66,550 67,90 69,110 70,60
71,90 72,10 73,70 74,30
75,110 76,50 77,270 78,100
79,60 80,10 81,10 82,40
83,40 84,390 85,70 86,30
87,20 89,750 90,220 91,310
92,50 93,20 94,20 95,50
96,30 97,120 98,10 99,260
100,10 101,90 102,20 103,10
104,30 105,50 106,10 107,10
110,9999 111,1060 112,530 113,50
114,10 117,30 118,20 119,10
121,40 122,30 123,130 125,2111
126,180 127,710 128,60 129,10
134,20 135,40 136,280 137,60
138,230 139,30 140,10 141,10
151,60 152,280 153,40 154,40
155,10 156,60 157,10 165,20
166,20 167,10 203,10 204,20
205,10 206,10 220,10 221,20
222,10 223,10 226,40 228,440
229,70 230,350 231,60 232,120
233,20 234,20 235,10 236,10
247,10 260,30 262,2272 263,4233
264,1521 265,1591 266,270 267,90
268,10
##END=
