##TITLE=Naphthalene, 1-pentadecyl-
##JCAMP-DX=4.24
##DATA TYPE=MASS SPECTRUM
##OWNER=NIST Mass Spectrometry Data Center
Collection (C) 2014 copyright by the U.S. Secretary of Commerce
on behalf of the United States of America. All rights reserved.
##CAS REGISTRY NO=55191-63-4
##$NIST MASS SPEC NO=15591
##MOLFORM=C25 H38
##MW=338
##$NIST SOURCE=MSDC
##XUNITS=M/Z
##YUNITS=RELATIVE INTENSITY
##XFACTOR=1
##YFACTOR=1
##FIRSTX=12
##LASTX=341
##FIRSTY=10
##MAXX=341
##MINX=12
##MAXY=9999
##MINY=10
##NPOINTS=235
##PEAK TABLE=(XY..XY)
12,10 13,10 14,20 15,60
16,20 17,10 18,40 19,10
24,10 25,20 26,80 27,771
28,230 29,1812 30,40 36,10
37,10 38,20 39,320 40,60
41,1932 42,320 43,2372 44,80
45,10 46,10 47,10 48,10
49,10 50,20 51,50 52,20
53,90 54,60 55,821 56,170
57,601 58,40 59,10 60,10
61,10 62,10 63,60 64,10
65,40 66,10 67,80 68,20
69,190 70,40 71,130 72,10
73,10 74,20 75,30 76,20
77,60 78,20 79,20 80,10
81,30 82,20 83,70 84,20
85,50 86,10 87,10 88,10
89,40 90,10 91,60 92,10
93,10 94,10 95,20 96,10
97,30 98,10 99,10 100,10
101,20 102,30 103,10 104,10
105,10 106,10 107,10 108,10
109,10 110,10 111,10 112,10
113,20 114,20 115,671 116,70
117,10 118,10 119,10 120,10
121,10 122,10 123,10 124,10
125,10 126,40 127,140 128,510
129,230 130,50 131,10 132,10
133,10 134,10 135,10 136,10
137,10 138,10 139,180 140,110
141,9999 142,2973 143,310 144,40
145,10 146,10 147,10 148,10
149,10 150,10 151,40 152,230
153,410 154,721 155,520 156,90
157,10 158,10 159,10 160,10
161,10 162,10 163,10 164,20
165,210 166,100 167,611 168,140
169,90 170,30 171,10 172,10
173,10 174,10 175,10 176,10
177,10 178,40 179,60 180,50
181,70 182,30 183,50 184,10
185,10 186,10 187,10 188,10
189,10 190,10 191,10 192,10
193,30 194,10 195,10 196,10
197,10 198,10 199,10 200,10
201,10 202,10 203,10 204,10
205,10 206,10 207,10 208,10
209,10 210,10 211,10 212,10
213,10 214,10 215,10 216,10
217,10 218,10 219,10 220,10
221,10 222,10 223,10 224,10
225,10 226,10 238,20 239,10
240,10 250,10 251,10 252,20
253,10 254,10 266,10 267,10
268,10 269,10 270,10 280,10
281,10 282,10 294,10 295,10
296,10 308,10 309,10 322,10
323,10 336,240 337,80 338,5315
339,1461 340,190 341,20
##END=
