##TITLE=Benzene, 1,1'-[3-(2-phenylethylidene)-1,5-pentanediyl]bis-
##JCAMP-DX=4.24
##DATA TYPE=MASS SPECTRUM
##OWNER=NIST Mass Spectrometry Data Center
Collection (C) 2014 copyright by the U.S. Secretary of Commerce
on behalf of the United States of America. All rights reserved.
##CAS REGISTRY NO=55334-57-1
##$NIST MASS SPEC NO=15248
##MOLFORM=C25 H26
##MW=326
##$NIST SOURCE=MSDC
##XUNITS=M/Z
##YUNITS=RELATIVE INTENSITY
##XFACTOR=1
##YFACTOR=1
##FIRSTX=63
##LASTX=328
##FIRSTY=510
##MAXX=328
##MINX=63
##MAXY=9999
##MINY=10
##NPOINTS=164
##PEAK TABLE=(XY..XY)
63,510 64,170 65,1511 66,130
67,60 68,30 69,40 70,10
71,20 73,30 74,150 75,150
76,160 77,1381 78,150 79,470
80,40 81,30 82,30 83,30
84,10 85,10 86,30 87,50
88,30 89,270 90,120 91,9999
92,1481 93,160 94,70 95,30
96,10 97,10 98,20 99,10
100,10 101,70 102,200 103,601
104,981 105,3533 106,601 107,80
108,30 109,10 110,10 111,10
112,10 113,30 114,30 115,621
116,60 117,1501 118,210 119,70
120,80 121,30 122,10 123,10
124,10 125,10 126,70 127,290
128,1281 129,1301 130,310 131,881
132,120 133,480 134,110 135,20
136,10 137,10 138,10 139,50
140,20 141,571 142,220 143,861
144,210 145,180 146,110 147,180
148,90 149,20 150,10 151,30
152,70 153,60 154,30 155,330
156,70 157,250 158,40 159,40
160,60 161,10 162,10 163,10
164,10 165,110 166,40 167,70
168,20 169,10 170,10 171,10
174,10 175,10 176,20 177,20
178,100 179,110 180,100 181,120
182,300 183,50 184,10 185,10
187,10 188,10 189,30 190,10
191,40 192,30 193,40 194,30
195,50 196,30 197,10 200,10
201,10 202,60 203,40 204,40
205,50 206,20 207,20 208,20
209,10 210,10 213,10 214,10
215,70 216,30 217,50 218,30
219,140 220,70 221,130 222,100
223,20 234,170 235,150 236,70
237,60 249,30 250,10 324,50
325,20 326,320 327,90 328,10
##END=
