##TITLE=Tripalmitin
##JCAMP-DX=4.24
##DATA TYPE=MASS SPECTRUM
##ORIGIN=EP-1264
##OWNER=NIST Mass Spectrometry Data Center
Collection (C) 2014 copyright by the U.S. Secretary of Commerce
on behalf of the United States of America. All rights reserved.
##CAS REGISTRY NO=555-44-2
##$NIST MASS SPEC NO=43690
##MOLFORM=C51 H98 O6
##MW=806
##$NIST SOURCE=MSDC
##XUNITS=M/Z
##YUNITS=RELATIVE INTENSITY
##XFACTOR=1
##YFACTOR=1
##FIRSTX=25
##LASTX=808
##FIRSTY=20
##MAXX=808
##MINX=25
##MAXY=9999
##MINY=10
##NPOINTS=506
##PEAK TABLE=(XY..XY)
25,20 26,90 27,410 28,370
29,1210 30,60 31,80 37,30
38,40 39,320 40,100 41,2360
42,620 43,5389 44,440 45,160
46,20 47,20 48,20 49,20
50,30 51,40 52,30 53,140
54,320 55,3820 56,1030 57,7089
58,430 59,130 60,910 61,300
62,30 63,30 64,30 65,50
66,60 67,910 68,450 69,2670
70,670 71,4120 72,300 73,1090
74,180 75,70 76,40 77,100
78,50 79,210 80,150 81,1090
82,450 83,2420 84,1760 85,2790
86,240 87,280 88,50 89,50
90,20 91,80 92,30 93,200
94,140 95,1450 96,420 97,1820
98,2670 99,710 100,240 101,200
102,110 103,50 104,50 105,70
106,40 107,160 108,100 109,850
110,230 111,850 112,1090 113,520
114,100 115,270 116,370 117,270
118,40 119,40 120,40 121,250
122,80 123,430 124,150 125,360
126,290 127,270 128,70 129,910
130,100 131,40 132,30 133,80
134,60 135,220 136,50 137,230
139,170 140,170 141,190 142,80
143,130 144,50 145,50 146,20
147,60 148,30 149,330 150,60
151,110 152,100 153,110 154,200
155,160 156,70 157,190 158,700
159,130 160,40 161,40 162,30
163,70 164,40 165,70 166,50
167,100 168,140 169,130 170,80
171,1120 172,170 173,50 174,30
175,20 176,20 177,40 178,30
179,50 180,50 181,50 182,120
183,220 184,80 185,400 186,90
187,40 188,20 189,30 190,20
191,40 192,40 193,40 194,100
195,90 196,120 197,100 198,30
199,160 200,50 201,30 202,20
203,40 204,30 205,40 206,40
207,70 208,40 209,70 210,50
211,80 212,40 213,380 214,100
215,40 216,20 217,40 218,40
219,120 220,70 221,70 222,40
223,30 224,30 225,80 226,40
227,480 228,100 229,40 230,20
231,20 232,20 233,20 234,40
235,40 236,140 237,240 238,120
239,8299 240,1520 241,240 242,60
243,30 244,20 245,20 246,20
247,20 248,20 249,20 250,20
251,40 252,40 253,100 254,80
255,180 256,480 257,190 258,40
259,20 260,20 261,20 262,20
263,110 264,40 265,40 266,40
267,110 268,50 269,240 270,100
271,40 272,20 273,20 279,20
280,210 281,160 282,70 283,190
284,110 285,150 286,40 287,20
288,20 289,20 290,20 292,20
293,20 294,80 295,80 296,110
297,230 298,80 299,100 300,40
301,30 302,20 306,20 307,20
308,70 309,80 310,110 311,850
312,500 313,4850 314,1090 315,160
316,40 317,10 318,20 319,20
320,20 321,20 322,30 323,60
324,70 325,150 326,70 327,50
329,30 330,20 331,170 332,50
333,20 335,20 336,30 337,50
338,70 339,190 340,60 341,80
342,20 343,20 349,20 350,30
351,40 352,60 353,80 354,2180
355,1480 356,300 357,70 358,20
365,70 366,60 367,4120 368,1090
369,190 370,40 371,20 372,40
373,70 374,30 379,40 380,50
381,280 382,100 383,40 384,20
385,10 392,20 393,60 394,40
395,140 396,130 397,40 398,20
399,20 400,10 407,40 408,40
409,530 410,200 411,60 412,20
414,70 415,40 416,20 420,30
421,40 422,40 423,1360 424,520
425,110 426,20 427,20 428,20
429,10 433,20 434,20 435,20
436,20 437,270 438,130 439,40
440,20 441,20 442,50 443,20
448,20 449,20 450,20 451,350
452,160 453,50 454,20 455,20
456,20 457,20 458,10 463,20
464,20 465,390 466,180 467,80
468,40 469,40 470,30 475,20
476,60 477,60 478,40 479,300
480,150 481,50 482,20 483,20
484,20 485,10 490,20 491,20
492,20 493,210 494,140 495,50
496,20 497,20 498,30 499,10
500,10 505,20 506,30 507,880
508,330 509,100 510,30 511,20
512,20 513,20 520,20 521,310
522,210 523,70 524,20 525,20
526,20 527,20 535,120 536,70
537,610 538,230 539,70 540,40
547,50 548,130 549,970 550,5449
551,9999 552,3820 553,820 554,130
555,30 564,30 565,30 566,20
567,20 568,30 569,150 570,70
571,20 578,20 579,30 580,20
592,280 593,140 594,40 595,130
596,60 597,20 610,320 611,150
612,40 613,20 620,80 621,50
622,20 634,30 635,30 638,30
639,20 648,20 649,20 652,20
662,40 663,20 666,20 667,10
676,50 677,20 680,20 690,50
691,20 694,20 695,20 704,50
705,30 706,20 708,30 709,20
718,40 719,30 722,20 723,20
732,30 733,40 734,30 736,20
737,10 746,20 750,20 788,80
789,50 790,20 805,40 806,80
807,50 808,20
##END=
