##TITLE=Octacosanoic acid, methyl ester
##JCAMP-DX=4.24
##DATA TYPE=MASS SPECTRUM
##ORIGIN=Chemical Concepts
##OWNER=NIST Mass Spectrometry Data Center
Collection (C) 2014 copyright by the U.S. Secretary of Commerce
on behalf of the United States of America. All rights reserved.
##CAS REGISTRY NO=55682-92-3
##$NIST MASS SPEC NO=161070
##MOLFORM=C29 H58 O2
##MW=438
##$NIST SOURCE=MSDC
##XUNITS=M/Z
##YUNITS=RELATIVE INTENSITY
##XFACTOR=1
##YFACTOR=1
##FIRSTX=27
##LASTX=441
##FIRSTY=258
##MAXX=441
##MINX=27
##MAXY=9999
##MINY=6
##NPOINTS=273
##PEAK TABLE=(XY..XY)
27,258 28,33 29,940 30,21
31,55 33,10 38,10 39,172
40,349 41,2093 42,443 43,5417
44,174 45,90 50,11 51,18
52,6 53,95 54,220 55,3319
56,815 57,4901 58,248 59,391
60,48 61,43 65,24 66,25
67,578 68,275 69,2458 70,519
71,2068 72,119 73,215 74,9999
75,4834 76,199 77,53 78,26
79,116 80,63 81,653 82,307
83,1653 84,427 85,1075 86,80
87,7300 88,639 89,52 90,7
91,48 92,14 93,123 94,58
95,503 96,257 97,1348 98,535
99,322 100,38 101,819 102,87
103,11 105,28 106,12 107,134
108,31 109,327 110,104 111,625
112,142 113,162 114,36 115,323
116,169 117,25 119,24 120,11
121,186 122,33 123,182 124,85
125,381 126,67 127,85 128,23
129,804 130,377 131,33 133,18
134,17 135,199 136,36 137,97
138,65 139,201 140,58 141,70
142,16 143,2740 144,309 145,23
147,15 149,142 150,18 151,57
152,33 153,137 154,33 155,41
156,29 157,362 158,89 159,10
161,10 162,7 163,79 164,16
165,31 166,25 167,109 168,21
169,34 171,256 172,110 173,8
175,6 177,63 178,12 179,18
180,16 181,72 182,31 183,21
185,537 186,159 187,15 191,43
192,10 193,19 194,13 195,58
196,23 197,16 199,817 200,149
201,16 203,6 205,33 206,15
207,14 208,11 209,48 210,13
211,14 213,206 214,103 215,14
219,26 220,8 221,10 222,13
223,44 224,17 225,8 227,238
228,75 229,10 233,15 235,8
236,8 237,35 238,16 239,9
241,280 242,82 243,13 247,22
249,7 251,26 252,18 253,16
255,312 256,63 257,8 261,16
263,7 264,7 265,20 266,11
267,7 269,140 270,49 271,12
275,13 277,6 278,11 279,18
280,14 281,16 283,268 284,78
285,11 291,7 292,12 293,21
294,14 295,7 296,16 297,249
298,70 299,12 303,6 306,6
307,15 308,7 311,162 312,48
313,8 320,8 321,13 322,11
325,108 326,52 327,9 335,13
336,7 339,458 340,126 341,20
345,6 349,7 350,6 353,246
354,77 355,11 362,11 363,7
364,38 365,11 367,83 368,34
377,8 378,8 381,135 382,49
383,10 387,11 388,7 389,16
390,7 395,734 396,216 397,26
404,39 405,36 406,21 407,218
408,70 409,122 410,46 411,6
421,9 422,8 423,9 424,6
437,34 438,5605 439,1727 440,293
441,38
##END=
