##TITLE=2,4,6-Triisopropylbenzoyl chloride
##JCAMP-DX=4.24
##DATA TYPE=MASS SPECTRUM
##ORIGIN=NIST Mass Spectrometry Data Center
##OWNER=NIST Mass Spectrometry Data Center
Collection (C) 2014 copyright by the U.S. Secretary of Commerce
on behalf of the United States of America. All rights reserved.
##CAS REGISTRY NO=57199-00-5
##$NIST MASS SPEC NO=342941
##MOLFORM=C16 H23 Cl O
##MW=266
##$NIST SOURCE=MSDC
##XUNITS=M/Z
##YUNITS=RELATIVE INTENSITY
##XFACTOR=1
##YFACTOR=1
##FIRSTX=13
##LASTX=266
##FIRSTY=10
##MAXX=266
##MINX=13
##MAXY=9999
##MINY=10
##NPOINTS=156
##PEAK TABLE=(XY..XY)
13,10 15,891 17,10 18,80
19,90 25,10 27,2082 28,130
29,1271 30,30 31,60 35,40
36,80 37,20 39,1051 41,2823
43,4794 44,150 45,20 49,30
50,90 51,520 52,130 53,370
54,30 55,310 56,20 57,90
58,60 59,60 62,90 63,390
64,240 65,430 66,70 67,110
69,130 70,70 71,190 72,60
74,60 75,120 76,240 77,851
78,260 79,310 80,80 81,30
82,80 83,150 84,150 85,230
86,150 88,40 89,240 91,1591
92,180 93,80 96,20 97,20
98,30 99,30 100,60 101,50
102,160 103,240 105,520 106,50
107,30 108,30 113,30 115,1211
116,390 117,761 118,120 119,270
120,30 125,20 127,440 128,1231
129,1311 130,340 131,520 132,80
133,170 134,10 139,100 141,530
142,330 143,621 144,150 145,420
146,100 147,350 148,40 149,10
150,10 151,50 152,150 153,240
154,150 155,330 156,280 157,240
158,80 159,170 160,40 161,30
165,80 166,30 167,80 168,40
169,200 170,130 171,591 172,130
173,370 174,60 175,150 176,20
181,40 182,30 183,50 184,10
185,60 187,190 188,160 189,110
190,20 195,10 197,140 198,80
199,60 200,40 201,150 202,90
203,20 205,10 209,10 211,10
213,681 214,150 215,520 216,190
217,30 223,30 225,10 229,90
231,9999 232,1702 233,230 234,10
237,10 251,10 265,10 266,20
##END=
