##TITLE=Aminopromazine
##JCAMP-DX=4.24
##DATA TYPE=MASS SPECTRUM
##ORIGIN=AAFS Toxicology Section MS DB Committee, U. Alberta, Canada
##OWNER=NIST Mass Spectrometry Data Center
Collection (C) 2014 copyright by the U.S. Secretary of Commerce
on behalf of the United States of America. All rights reserved.
##CAS REGISTRY NO=58-37-7
##$NIST MASS SPEC NO=246943
##MOLFORM=C19 H25 N3 S
##MW=327
##$NIST SOURCE=MSDC
##XUNITS=M/Z
##YUNITS=RELATIVE INTENSITY
##XFACTOR=1
##YFACTOR=1
##FIRSTX=41
##LASTX=329
##FIRSTY=220
##MAXX=329
##MINX=41
##MAXY=9999
##MINY=50
##NPOINTS=100
##PEAK TABLE=(XY..XY)
41,220 42,390 43,330 44,100
45,170 51,60 53,130 54,110
55,460 56,620 57,310 58,2992
59,150 60,180 65,70 67,240
68,170 69,980 70,4524 71,1721
72,990 73,390 74,60 77,220
79,130 81,480 82,290 83,380
84,280 85,240 87,130 88,170
91,90 93,150 94,80 95,220
96,140 97,290 98,640 99,350
100,70 101,90 102,50 104,70
105,90 107,90 108,90 109,190
110,70 111,140 112,80 113,70
114,190 115,2992 116,330 119,60
121,190 122,70 123,110 125,60
126,70 127,210 128,120 129,120
134,50 135,70 136,80 137,90
139,140 140,100 149,200 151,110
152,210 153,120 154,370 166,150
167,100 171,240 178,70 179,90
180,320 181,70 185,60 191,140
196,120 197,310 198,9999 199,1581
200,610 201,90 212,160 213,60
223,70 269,1901 270,360 271,120
282,270 327,680 328,140 329,60
##END=
