##TITLE=Dipyridamole
##JCAMP-DX=4.24
##DATA TYPE=MASS SPECTRUM
##ORIGIN=Japan AIST/NIMC Database- Spectrum MS-IW-5677
##OWNER=NIST Mass Spectrometry Data Center
Collection (C) 2014 copyright by the U.S. Secretary of Commerce
on behalf of the United States of America. All rights reserved.
##CAS REGISTRY NO=58-32-2
##$NIST MASS SPEC NO=237441
##MOLFORM=C24 H40 N8 O4
##MW=504
##$NIST SOURCE=MSDC
##XUNITS=M/Z
##YUNITS=RELATIVE INTENSITY
##XFACTOR=1
##YFACTOR=1
##FIRSTX=15
##LASTX=507
##FIRSTY=10
##MAXX=507
##MINX=15
##MAXY=9999
##MINY=10
##NPOINTS=405
##PEAK TABLE=(XY..XY)
15,10 26,30 27,129 28,40
29,139 30,169 31,10 39,50
40,20 41,349 42,219 43,139
44,209 45,199 50,10 51,20
52,50 53,40 54,60 55,199
56,289 57,149 58,20 65,10
66,10 67,80 68,60 69,189
70,139 71,20 72,20 74,20
77,10 78,20 79,99 80,50
81,40 82,99 83,80 84,809
85,289 86,99 87,20 88,50
91,10 92,20 93,30 94,40
95,20 96,20 97,10 98,10
99,10 100,10 104,20 105,20
106,60 107,40 108,30 109,20
110,10 111,20 112,10 113,20
114,139 115,20 116,50 117,10
118,30 119,60 120,40 121,70
122,40 123,20 125,10 126,10
127,20 128,80 129,30 130,10
131,50 132,40 133,70 134,70
135,99 136,70 137,20 138,10
139,10 140,10 141,50 142,40
143,30 144,40 145,50 146,80
147,70 148,99 149,149 150,50
151,10 154,10 155,70 156,259
157,70 158,60 159,60 160,90
161,80 162,119 163,269 164,40
165,20 168,20 169,70 170,80
171,70 172,90 173,129 174,80
175,80 176,139 177,199 178,70
179,10 180,10 181,10 182,20
183,109 184,509 185,119 186,99
187,159 188,99 189,99 190,249
191,739 192,60 193,20 194,10
195,10 196,30 197,99 198,219
199,429 200,139 201,109 202,129
203,109 204,60 205,129 206,719
207,50 209,10 210,20 211,80
212,399 213,149 214,159 215,129
216,109 217,70 218,60 219,50
220,129 221,1939 222,99 223,20
224,20 225,70 226,80 227,139
228,139 229,109 230,90 231,90
232,60 233,50 234,289 236,169
237,50 238,20 239,50 240,70
241,129 242,99 243,289 244,70
245,70 246,70 247,40 248,30
249,20 250,20 251,30 252,599
254,60 255,109 256,109 257,99
258,90 259,70 260,70 261,50
262,30 263,30 264,20 265,20
266,30 267,40 268,50 269,80
270,149 271,109 272,109 273,99
274,60 275,40 276,30 277,30
278,30 279,20 280,30 281,40
282,60 283,60 284,129 285,129
286,90 287,99 288,70 289,60
290,60 291,30 292,20 293,20
294,20 295,30 296,60 297,80
298,90 299,159 300,99 301,90
302,109 303,80 304,60 305,50
306,20 307,20 308,20 309,30
310,40 311,80 312,70 313,90
314,169 315,109 316,149 317,179
318,70 319,40 320,40 321,20
322,20 323,30 324,50 325,70
326,70 327,70 328,129 329,139
330,109 331,80 332,80 333,70
334,90 335,30 336,20 337,40
338,40 339,60 340,60 341,99
342,119 343,139 344,259 345,129
346,229 347,90 348,90 349,20
351,40 352,30 353,149 354,90
355,159 356,119 357,99 358,119
359,99 360,269 361,159 362,90
363,20 364,60 365,40 367,169
368,90 369,119 370,90 371,70
372,169 373,189 374,149 375,90
376,109 377,70 378,60 379,50
380,30 381,80 382,70 383,129
384,70 385,409 386,179 387,149
388,139 389,60 390,579 391,199
392,129 393,50 394,10 395,40
396,20 397,269 398,119 399,529
400,249 401,129 402,109 403,90
404,119 405,149 406,50 407,10
408,10 409,40 411,459 412,209
413,169 414,70 415,70 416,80
417,129 418,99 419,80 420,10
421,159 422,159 423,50 424,40
425,129 426,90 427,229 428,40
429,4449 430,1329 431,309 432,60
435,50 436,10 437,30 438,10
439,20 441,119 442,159 443,769
444,369 445,129 448,139 455,419
456,269 457,129 459,259 460,489
461,489 462,129 468,99 471,70
473,4929 474,2119 475,509 476,80
485,10 486,569 487,399 488,109
503,639 504,9999 505,2899 506,509
507,60
##END=
