##TITLE=Pyridine, 2,4,6-triphenyl-
##JCAMP-DX=4.24
##DATA TYPE=MASS SPECTRUM
##ORIGIN=NIST Mass Spectrometry Data Center, 1994
##OWNER=NIST Mass Spectrometry Data Center
Collection (C) 2014 copyright by the U.S. Secretary of Commerce
on behalf of the United States of America. All rights reserved.
##CAS REGISTRY NO=580-35-8
##$NIST MASS SPEC NO=135854
##MOLFORM=C23 H17 N
##MW=307
##$NIST SOURCE=MSDC
##XUNITS=M/Z
##YUNITS=RELATIVE INTENSITY
##XFACTOR=1
##YFACTOR=1
##FIRSTX=18
##LASTX=309
##FIRSTY=1
##MAXX=309
##MINX=18
##MAXY=9999
##MINY=1
##NPOINTS=111
##PEAK TABLE=(XY..XY)
18,1 39,235 40,22 50,222
51,663 52,164 62,66 63,225
64,36 65,41 75,253 76,588
77,791 78,113 86,37 87,91
88,71 89,161 90,26 98,40
99,47 100,111 101,263 102,806
103,236 104,195 112,31 113,108
114,77 115,63 120,34 124,34
125,105 126,243 127,249 128,79
132,46 133,85 134,47 137,65
138,137 139,195 140,83 145,65
146,146 149,30 150,115 151,278
152,336 154,280 162,28 163,67
164,49 165,59 174,41 175,76
176,185 177,91 178,71 187,38
188,50 189,102 190,71 191,37
199,53 200,284 201,533 202,1116
203,410 204,172 205,34 213,21
214,53 215,37 225,38 226,94
227,613 228,557 229,245 230,2072
231,336 232,37 240,31 250,34
251,28 252,95 253,31 254,27
263,37 264,42 265,57 266,43
267,28 274,26 276,149 277,154
278,220 279,96 280,132 281,28
289,184 290,157 291,172 292,70
301,35 302,120 304,735 306,5334
307,9999 308,2328 309,299
##END=
