##TITLE=Cholest-4-en-3-one
##JCAMP-DX=4.24
##DATA TYPE=MASS SPECTRUM
##ORIGIN=NIST Mass Spectrometry Data Center
##OWNER=NIST Mass Spectrometry Data Center
Collection (C) 2014 copyright by the U.S. Secretary of Commerce
on behalf of the United States of America. All rights reserved.
##CAS REGISTRY NO=601-57-0
##$NIST MASS SPEC NO=352222
##MOLFORM=C27 H44 O
##MW=384
##$NIST SOURCE=MSDC
##XUNITS=M/Z
##YUNITS=RELATIVE INTENSITY
##XFACTOR=1
##YFACTOR=1
##FIRSTX=15
##LASTX=387
##FIRSTY=20
##MAXX=387
##MINX=15
##MAXY=9999
##MINY=10
##NPOINTS=279
##PEAK TABLE=(XY..XY)
15,20 25,10 26,20 27,240
28,60 29,631 30,10 32,10
37,10 38,20 39,300 40,80
41,2222 42,310 43,3813 44,130
45,70 50,20 51,50 52,30
53,410 54,100 55,2732 56,350
57,1922 58,80 59,30 63,10
64,10 65,240 66,110 67,1541
68,300 69,1381 70,180 71,871
72,50 73,70 74,10 77,881
78,220 79,2102 80,310 81,1812
82,260 83,751 84,70 85,170
86,30 87,80 89,40 90,10
91,2102 92,370 93,1892 94,671
95,2352 96,360 97,671 98,60
99,60 100,20 101,50 102,30
103,200 104,130 105,1902 106,631
107,2052 108,681 109,1712 110,260
111,510 112,50 113,40 114,20
115,260 116,130 117,681 118,230
119,1391 120,781 121,1822 122,1151
123,1661 124,9999 125,1031 126,70
127,70 128,190 129,330 130,150
131,921 132,290 133,1511 134,1061
135,2062 136,681 137,1041 138,270
139,50 140,10 141,120 142,110
143,340 144,170 145,791 146,400
147,2182 148,1381 149,1742 150,290
151,140 152,50 153,40 154,30
155,130 156,90 157,280 158,130
159,731 160,270 161,641 162,310
163,430 164,80 165,150 166,30
167,30 168,20 169,120 170,100
171,260 172,120 173,540 174,330
175,450 176,200 177,260 178,50
179,80 180,20 181,30 182,20
183,110 184,80 185,260 186,140
187,701 188,260 189,290 190,80
191,110 192,30 193,110 194,20
195,20 196,10 197,120 198,50
199,120 200,90 201,320 202,210
203,160 204,40 205,80 206,100
207,30 209,20 210,10 211,310
212,130 213,150 214,60 215,170
216,90 217,80 218,30 219,70
220,30 221,10 223,10 225,60
226,90 227,90 228,80 229,2422
230,601 231,150 232,40 233,50
234,10 235,10 236,10 237,10
239,20 240,10 241,20 242,20
243,140 244,140 245,330 246,80
247,280 248,70 249,10 251,10
252,10 253,130 254,30 255,30
256,10 257,160 258,60 259,70
260,981 261,1251 262,240 263,40
264,10 267,10 269,30 270,30
271,380 272,90 273,40 274,40
275,40 276,10 281,20 282,10
283,20 284,10 285,30 286,190
287,50 288,10 289,10 295,10
297,10 298,40 299,420 300,190
301,40 302,50 303,10 313,30
314,20 315,10 325,10 326,10
327,340 328,100 329,20 340,50
341,50 342,731 343,200 344,30
351,70 352,20 353,10 355,30
356,40 357,10 365,10 366,100
367,70 368,20 369,440 370,120
371,20 382,10 383,30 384,1631
385,450 386,70 387,10
##END=
