##TITLE=4-Ethoxy-3-methoxybenzyl alcohol
##JCAMP-DX=4.24
##DATA TYPE=MASS SPECTRUM
##ORIGIN=Japan AIST/NIMC Database- Spectrum MS-IW- 884
##OWNER=NIST Mass Spectrometry Data Center
Collection (C) 2014 copyright by the U.S. Secretary of Commerce
on behalf of the United States of America. All rights reserved.
##CAS REGISTRY NO=61813-58-9
##$NIST MASS SPEC NO=237862
##MOLFORM=C10 H14 O3
##MW=182
##$NIST SOURCE=MSDC
##XUNITS=M/Z
##YUNITS=RELATIVE INTENSITY
##XFACTOR=1
##YFACTOR=1
##FIRSTX=14
##LASTX=184
##FIRSTY=10
##MAXX=184
##MINX=14
##MAXY=9999
##MINY=10
##NPOINTS=107
##PEAK TABLE=(XY..XY)
14,10 15,80 26,60 27,409
28,199 29,70 30,10 31,139
32,10 37,10 38,50 39,539
40,90 41,439 42,30 43,219
44,20 45,119 50,119 51,419
52,159 53,429 54,149 55,399
56,30 57,40 59,239 61,20
62,50 63,159 64,90 65,1759
66,349 67,559 68,60 69,70
70,10 71,20 74,20 75,30
76,50 77,659 78,169 79,379
80,119 81,289 82,259 83,319
84,20 85,10 89,159 90,80
91,139 92,80 93,3389 94,839
95,759 96,90 97,1089 98,80
103,20 104,60 105,319 106,139
107,429 108,259 109,429 110,239
111,759 112,50 118,229 119,189
120,40 121,1159 122,2559 123,1539
124,169 125,3189 126,249 127,20
131,10 132,20 133,20 134,10
135,419 136,639 137,2579 138,319
139,659 140,50 149,30 150,20
151,629 152,299 153,2239 154,4289
155,389 156,40 165,179 166,99
167,50 179,10 180,159 181,169
182,9999 183,1129 184,109
##END=
