##TITLE=Phenol, 2,3-dichloro-, acetate
##JCAMP-DX=4.24
##DATA TYPE=MASS SPECTRUM
##ORIGIN=NIST Mass Spectrometry Data Center
##OWNER=NIST Mass Spectrometry Data Center
Collection (C) 2014 copyright by the U.S. Secretary of Commerce
on behalf of the United States of America. All rights reserved.
##CAS REGISTRY NO=61925-85-7
##$NIST MASS SPEC NO=364904
##MOLFORM=C8 H6 Cl2 O2
##MW=204
##$NIST SOURCE=MSDC
##XUNITS=M/Z
##YUNITS=RELATIVE INTENSITY
##XFACTOR=1
##YFACTOR=1
##FIRSTX=12
##LASTX=209
##FIRSTY=10
##MAXX=209
##MINX=12
##MAXY=9999
##MINY=10
##NPOINTS=115
##PEAK TABLE=(XY..XY)
12,10 13,30 14,150 15,771
16,10 17,10 18,50 25,10
26,60 27,30 28,90 29,40
31,20 32,10 35,20 36,20
37,270 38,150 39,210 41,50
42,310 43,9999 44,290 45,30
47,40 48,50 49,110 50,130
51,50 52,10 53,60 54,20
55,20 60,40 61,260 62,480
63,1672 64,150 65,50 66,30
67,10 71,40 72,360 73,561
74,260 75,250 76,10 77,30
78,10 83,110 84,100 85,90
86,40 87,50 89,20 90,10
91,70 92,20 94,10 95,10
96,60 97,240 98,530 99,290
100,170 101,80 102,10 106,10
107,220 108,20 109,240 110,40
111,70 112,20 113,10 119,20
123,10 125,10 126,1481 127,130
128,500 129,50 130,10 131,10
133,581 134,50 135,370 136,30
137,60 138,10 141,10 145,110
146,10 147,70 148,10 149,10
154,10 156,10 157,10 158,10
161,70 162,8287 163,611 164,4964
165,360 166,801 167,60 169,10
189,10 204,1051 205,90 206,641
207,60 208,100 209,10
##END=
