##TITLE=Triarachine
##JCAMP-DX=4.24
##DATA TYPE=MASS SPECTRUM
##ORIGIN=Japan AIST/NIMC Database- Spectrum MS-IW-5078
##OWNER=NIST Mass Spectrometry Data Center
Collection (C) 2014 copyright by the U.S. Secretary of Commerce
on behalf of the United States of America. All rights reserved.
##CAS REGISTRY NO=620-64-4
##$NIST MASS SPEC NO=237315
##MOLFORM=C63 H122 O6
##MW=974
##$NIST SOURCE=MSDC
##XUNITS=M/Z
##YUNITS=RELATIVE INTENSITY
##XFACTOR=1
##YFACTOR=1
##FIRSTX=15
##LASTX=704
##FIRSTY=20
##MAXX=704
##MINX=15
##MAXY=9999
##MINY=10
##NPOINTS=349
##PEAK TABLE=(XY..XY)
15,20 16,30 17,159 18,979
19,10 24,20 25,90 26,609
27,1239 28,2559 29,1729 30,70
31,50 32,10 34,10 36,40
37,70 38,149 39,1219 40,389
41,5199 42,1569 43,7389 44,459
45,169 46,10 48,10 49,20
50,80 51,129 52,109 53,459
54,1079 55,8329 56,2749 57,8879
58,639 59,229 60,2669 61,1089
62,50 63,50 64,20 65,179
66,239 67,2169 68,1489 69,5309
70,2339 71,6049 72,409 73,3679
74,389 75,60 76,30 77,219
78,199 79,709 80,579 81,2399
82,1869 83,5439 84,3469 85,4079
86,339 87,939 88,139 89,40
90,10 91,389 92,209 93,499
94,419 95,2189 96,1509 97,4719
98,9999 99,1809 100,699 101,619
102,209 103,60 104,60 105,159
106,80 107,369 108,209 109,1299
110,639 111,2919 112,2609 113,1329
114,179 115,749 116,619 117,249
118,80 119,99 120,70 121,479
122,149 123,739 124,389 125,1149
126,489 127,539 128,119 129,2269
130,299 131,90 132,30 133,90
134,70 135,379 136,119 137,429
138,269 139,519 140,269 141,329
142,90 143,359 144,109 145,60
146,30 147,60 148,40 149,199
150,70 151,179 152,179 153,289
154,249 155,299 156,70 157,379
158,549 159,109 160,30 161,40
162,20 163,109 164,40 165,99
166,129 167,179 168,149 169,289
170,70 171,1179 172,219 173,50
174,10 175,20 176,10 177,60
178,30 179,70 180,90 181,139
182,109 183,229 184,50 185,789
186,129 187,30 188,10 189,20
190,10 191,40 192,30 193,50
194,99 195,99 196,99 197,139
198,40 199,249 200,80 201,20
202,10 203,10 204,10 205,30
206,20 207,50 208,90 209,80
210,90 211,109 212,30 213,619
214,129 215,20 216,10 217,10
218,10 219,20 220,20 221,30
222,50 223,60 224,109 225,90
226,30 227,669 228,109 229,30
232,10 233,20 234,10 235,20
236,40 237,50 238,90 239,80
240,20 241,269 242,60 243,20
246,10 247,20 248,20 249,20
250,129 251,90 252,90 253,90
254,20 255,209 256,70 257,20
258,10 259,10 260,10 261,10
262,10 263,20 264,30 265,40
266,40 267,60 268,30 269,719
270,149 271,20 272,10 273,10
274,20 275,40 276,60 277,70
278,40 279,20 280,10 281,40
282,10 283,209 284,60 285,10
290,10 291,10 292,80 293,119
294,279 295,2049 296,469 297,99
298,20 306,10 307,10 308,10
309,70 310,40 311,99 312,1409
313,339 314,50 321,10 323,40
324,10 325,90 326,30 327,10
336,50 337,50 338,20 339,50
340,20 342,30 344,10 350,20
351,30 352,80 353,239 354,70
355,20 364,10 365,20 366,20
367,159 368,109 369,939 370,249
371,50 372,10 379,10 381,30
382,10 387,20 395,40 396,10
397,10 409,10 410,329 411,219
412,50 413,10 421,20 423,1399
424,419 425,70 437,99 438,30
451,20 452,10 465,139 466,30
467,10 479,249 480,149 481,30
493,30 494,10 507,40 521,60
535,10 536,40 549,20 563,50
577,40 592,10 605,10 606,10
619,109 620,10 633,40 663,409
704,20
##END=
