##TITLE=Mebutamate
##JCAMP-DX=4.24
##DATA TYPE=MASS SPECTRUM
##ORIGIN=MI-0061
##OWNER=NIST Mass Spectrometry Data Center
Collection (C) 2014 copyright by the U.S. Secretary of Commerce
on behalf of the United States of America. All rights reserved.
##CAS REGISTRY NO=64-55-1
##$NIST MASS SPEC NO=11150
##MOLFORM=C10 H20 N2 O4
##MW=232
##$NIST SOURCE=MSDC
##XUNITS=M/Z
##YUNITS=RELATIVE INTENSITY
##XFACTOR=1
##YFACTOR=1
##FIRSTX=26
##LASTX=176
##FIRSTY=90
##MAXX=176
##MINX=26
##MAXY=9999
##MINY=10
##NPOINTS=99
##PEAK TABLE=(XY..XY)
26,90 27,771 28,741 29,1591
30,130 31,791 32,90 39,701
40,190 41,2943 42,490 43,2142
44,2492 45,641 46,170 47,60
51,70 52,50 53,490 54,470
55,6246 56,1151 57,2452 58,380
59,701 60,80 61,80 62,4094
63,90 64,40 65,100 66,90
67,611 68,340 69,3443 70,1251
71,4214 72,6406 73,1491 74,230
75,1692 76,160 77,100 78,10
79,180 80,30 81,841 82,591
83,891 84,1291 85,571 86,130
87,40 88,130 89,180 91,70
92,190 93,60 94,70 95,1591
96,290 97,9999 98,1792 99,791
100,240 101,100 102,90 103,10
104,250 105,130 106,10 109,140
110,3493 111,390 112,100 113,190
114,520 115,2042 116,500 117,70
118,60 119,50 120,10 126,10
127,30 128,1591 129,190 130,10
131,30 132,390 133,90 134,70
135,110 136,90 158,3093 159,290
160,40 175,440 176,90
##END=
