##TITLE=L-Methionine, N-acetyl-
##JCAMP-DX=4.24
##DATA TYPE=MASS SPECTRUM
##ORIGIN=Japan AIST/NIMC Database- Spectrum MS-IW-1577
##OWNER=NIST Mass Spectrometry Data Center
Collection (C) 2014 copyright by the U.S. Secretary of Commerce
on behalf of the United States of America. All rights reserved.
##CAS REGISTRY NO=65-82-7
##$NIST MASS SPEC NO=238781
##MOLFORM=C7 H13 N O3 S
##MW=191
##$NIST SOURCE=MSDC
##XUNITS=M/Z
##YUNITS=RELATIVE INTENSITY
##XFACTOR=1
##YFACTOR=1
##FIRSTX=14
##LASTX=194
##FIRSTY=20
##MAXX=194
##MINX=14
##MAXY=9999
##MINY=10
##NPOINTS=118
##PEAK TABLE=(XY..XY)
14,20 15,329 16,10 17,40
18,239 19,10 26,40 27,409
28,879 29,239 30,269 31,30
32,10 34,10 35,249 36,10
37,10 38,20 39,169 40,40
41,579 42,439 43,4149 44,599
45,449 46,209 47,559 48,159
49,149 50,10 51,10 52,20
53,30 54,199 55,299 56,2209
57,1919 58,149 59,189 60,349
61,2579 62,199 63,119 64,10
65,10 67,10 68,70 69,30
70,99 71,539 72,119 73,179
74,1379 75,2459 76,109 77,99
81,10 82,20 83,319 84,279
85,139 86,249 87,339 88,1609
89,90 90,40 95,10 96,10
97,109 98,489 99,7679 100,1049
101,239 102,819 103,70 104,709
105,40 106,30 111,20 112,1159
113,70 114,269 115,20 116,399
117,9999 118,529 119,80 120,20
125,319 126,99 127,10 128,40
129,20 130,2189 131,659 132,499
133,70 134,90 135,10 142,20
143,60 144,959 145,90 146,159
147,40 148,479 149,80 150,40
155,10 158,20 173,469 174,109
175,30 176,40 191,6059 192,1019
193,369 194,50
##END=
