##TITLE=Benzene, 1,2-dimethoxy-4-nitro-
##JCAMP-DX=4.24
##DATA TYPE=MASS SPECTRUM
##ORIGIN=NIST Mass Spectrometry Data Center
##OWNER=NIST Mass Spectrometry Data Center
Collection (C) 2014 copyright by the U.S. Secretary of Commerce
on behalf of the United States of America. All rights reserved.
##CAS REGISTRY NO=709-09-1
##$NIST MASS SPEC NO=352890
##MOLFORM=C8 H9 N O4
##MW=183
##$NIST SOURCE=MSDC
##XUNITS=M/Z
##YUNITS=RELATIVE INTENSITY
##XFACTOR=1
##YFACTOR=1
##FIRSTX=14
##LASTX=186
##FIRSTY=100
##MAXX=186
##MINX=14
##MAXY=9999
##MINY=10
##NPOINTS=107
##PEAK TABLE=(XY..XY)
14,100 15,811 16,20 17,10
18,60 25,20 26,110 27,110
28,210 29,320 30,1782 31,90
36,10 37,160 38,270 39,550
40,80 41,210 42,50 43,140
44,20 45,60 46,320 47,10
48,10 49,120 50,1261 51,3033
52,651 53,771 54,130 55,220
56,30 57,20 59,100 60,20
61,290 62,811 63,1431 64,530
65,550 66,1061 67,210 68,80
69,550 70,30 71,30 73,60
74,470 75,400 76,731 77,2993
78,641 79,6035 80,581 81,140
82,320 83,40 84,30 85,10
87,10 89,10 90,20 91,300
92,1722 93,480 94,1481 95,811
97,10 99,10 104,10 105,100
106,130 107,2242 108,861 109,390
110,1241 112,10 119,10 120,60
121,440 122,1001 123,330 125,2032
126,170 127,80 128,100 135,70
136,90 137,1772 138,370 140,20
150,10 151,20 153,2202 154,210
155,20 165,10 166,30 167,350
168,490 179,10 180,10 183,9999
184,901 185,120 186,10
##END=
