##TITLE=Oxirane, [([1,1'-biphenyl]-2-yloxy)methyl]-
##JCAMP-DX=4.24
##DATA TYPE=MASS SPECTRUM
##ORIGIN=NIST Mass Spectrometry Data Center
##OWNER=NIST Mass Spectrometry Data Center
Collection (C) 2014 copyright by the U.S. Secretary of Commerce
on behalf of the United States of America. All rights reserved.
##CAS REGISTRY NO=7144-65-2
##$NIST MASS SPEC NO=340750
##MOLFORM=C15 H14 O2
##MW=226
##$NIST SOURCE=MSDC
##XUNITS=M/Z
##YUNITS=RELATIVE INTENSITY
##XFACTOR=1
##YFACTOR=1
##FIRSTX=15
##LASTX=229
##FIRSTY=110
##MAXX=229
##MINX=15
##MAXY=9999
##MINY=10
##NPOINTS=142
##PEAK TABLE=(XY..XY)
15,110 25,10 26,180 27,1802
29,4224 30,120 31,2632 32,20
37,30 38,150 39,1311 40,50
41,150 42,100 43,120 44,10
49,10 50,470 51,971 52,240
53,100 54,10 55,510 56,60
57,3273 61,60 62,490 63,1521
64,290 65,601 66,60 67,10
68,60 69,120 73,10 74,460
75,651 76,771 77,811 78,160
79,40 81,20 82,60 83,60
84,80 85,50 86,270 87,480
88,410 89,1191 90,170 91,561
92,60 94,10 97,30 98,150
99,120 100,70 101,200 102,781
103,160 104,20 105,50 107,10
109,10 110,50 111,70 112,30
113,681 114,621 115,9158 116,981
117,50 118,70 119,40 120,10
121,10 122,10 125,80 126,631
127,761 128,510 129,490 130,60
131,340 132,30 133,10 137,90
138,150 139,3883 140,741 141,6826
142,2102 143,210 144,140 145,20
149,20 150,400 151,1231 152,3934
153,1932 154,781 155,4104 156,530
157,60 163,30 164,80 165,3033
166,550 167,771 168,2062 169,8077
170,9999 171,1241 172,80 176,60
177,250 178,370 179,470 180,90
181,2552 182,490 183,641 184,100
185,10 189,10 191,10 193,10
194,40 195,1001 196,631 197,130
198,10 207,110 208,20 209,10
210,40 211,10 226,8348 227,1361
228,130 229,10
##END=
