##TITLE=Cholesta-3,5-diene
##JCAMP-DX=4.24
##DATA TYPE=MASS SPECTRUM
##ORIGIN=Chemical Concepts
##OWNER=NIST Mass Spectrometry Data Center
Collection (C) 2014 copyright by the U.S. Secretary of Commerce
on behalf of the United States of America. All rights reserved.
##CAS REGISTRY NO=747-90-0
##$NIST MASS SPEC NO=187127
##MOLFORM=C27 H44
##MW=368
##$NIST SOURCE=MSDC
##XUNITS=M/Z
##YUNITS=RELATIVE INTENSITY
##XFACTOR=1
##YFACTOR=1
##FIRSTX=26
##LASTX=372
##FIRSTY=58
##MAXX=372
##MINX=26
##MAXY=9999
##MINY=30
##NPOINTS=235
##PEAK TABLE=(XY..XY)
26,58 27,743 28,42 29,2267
30,74 39,564 40,146 41,5337
42,556 43,7899 44,317 51,123
52,86 53,1018 54,200 55,6256
56,631 57,5244 58,291 65,538
66,256 67,4599 68,605 69,3693
70,391 71,2755 72,194 75,53
77,1694 78,642 79,4052 80,738
81,8600 82,896 83,2515 84,231
85,620 86,74 87,43 89,66
90,75 91,5193 92,1612 93,4827
94,1503 95,5296 96,570 97,1391
98,146 99,173 102,72 103,451
104,568 105,6151 106,2184 107,6291
108,2550 109,3189 110,429 111,872
112,115 113,226 114,134 115,760
116,512 117,2124 118,1058 119,2938
120,4057 121,3977 122,1087 123,1505
124,237 125,287 126,74 127,264
128,884 129,1458 130,837 131,2753
132,880 133,3344 134,1082 135,2811
136,621 137,580 138,107 139,142
141,514 142,531 143,2734 144,1106
145,6210 146,2168 147,7697 148,1841
149,1703 150,251 151,407 152,110
153,139 154,102 155,303 156,203
157,1265 158,1245 159,2790 160,2011
161,2152 162,640 163,1017 164,166
165,392 166,150 167,133 168,77
169,229 170,126 171,706 172,349
173,943 174,421 175,672 176,218
177,384 178,101 179,248 180,58
181,83 182,56 183,174 184,182
185,754 186,322 187,435 188,125
189,235 190,83 191,362 192,139
193,448 194,109 195,53 197,264
198,136 199,861 200,467 201,626
202,168 203,118 204,99 205,794
206,560 207,274 208,53 211,125
212,176 213,2597 214,788 215,464
216,170 217,90 218,75 219,227
220,88 221,37 225,72 226,86
227,354 228,727 229,405 230,120
231,149 232,66 233,93 239,130
240,86 241,255 242,86 243,74
244,48 245,506 246,488 247,3794
248,989 249,152 253,112 254,123
255,2534 256,596 257,192 258,115
259,378 260,2140 261,871 262,189
263,42 267,40 268,30 269,53
270,64 271,51 273,98 274,232
275,186 283,283 284,101 285,53
286,34 287,67 288,54 297,67
298,38 299,38 301,46 310,59
311,74 312,30 313,54 314,112
315,32 325,64 326,357 327,125
353,2707 354,826 355,250 356,82
366,67 367,179 368,9999 369,3373
370,780 371,147 372,74
##END=
