##TITLE=(E)-3-(2-Bromophenyl)propenoic acid
##JCAMP-DX=4.24
##DATA TYPE=MASS SPECTRUM
##ORIGIN=NIST Mass Spectrometry Data Center
##OWNER=NIST Mass Spectrometry Data Center
Collection (C) 2014 copyright by the U.S. Secretary of Commerce
on behalf of the United States of America. All rights reserved.
##CAS REGISTRY NO=7499-56-1
##$NIST MASS SPEC NO=343101
##MOLFORM=C9 H7 Br O2
##MW=226
##$NIST SOURCE=MSDC
##XUNITS=M/Z
##YUNITS=RELATIVE INTENSITY
##XFACTOR=1
##YFACTOR=1
##FIRSTX=11
##LASTX=229
##FIRSTY=40
##MAXX=229
##MINX=11
##MAXY=9999
##MINY=10
##NPOINTS=120
##PEAK TABLE=(XY..XY)
11,40 12,80 13,80 14,30
15,130 16,60 17,70 19,10
25,100 26,550 27,571 28,150
29,380 30,480 31,100 35,20
36,160 37,500 38,971 39,1191
40,70 41,160 42,80 43,80
44,270 45,1712 46,60 49,681
50,2462 51,3213 52,601 53,300
54,130 55,120 59,90 60,70
61,520 62,751 63,1101 64,170
65,1091 66,100 68,80 69,70
71,70 74,1852 75,2983 76,1752
77,1151 78,200 79,150 80,120
81,110 82,100 83,80 84,60
85,130 86,100 87,170 89,500
91,5325 92,370 93,70 96,140
97,90 98,360 99,510 101,1651
102,3173 103,3904 104,410 105,180
106,40 107,40 108,30 109,30
113,70 117,20 118,170 119,110
121,50 123,60 127,20 128,40
129,90 130,140 131,70 133,290
134,10 135,20 141,40 143,30
147,9999 148,1021 149,90 153,20
155,30 156,40 157,150 163,20
165,40 169,40 171,40 179,40
180,110 181,250 182,190 183,240
184,40 185,30 191,20 192,20
207,20 208,50 209,80 211,90
226,871 227,240 228,861 229,50
##END=
