##TITLE=Supraene
##JCAMP-DX=4.24
##DATA TYPE=MASS SPECTRUM
##ORIGIN=Japan AIST/NIMC Database- Spectrum MS-NW-8230
##OWNER=NIST Mass Spectrometry Data Center
Collection (C) 2014 copyright by the U.S. Secretary of Commerce
on behalf of the United States of America. All rights reserved.
##CAS REGISTRY NO=7683-64-9
##$NIST MASS SPEC NO=227620
##MOLFORM=C30 H50
##MW=410
##$NIST SOURCE=MSDC
##XUNITS=M/Z
##YUNITS=RELATIVE INTENSITY
##XFACTOR=1
##YFACTOR=1
##FIRSTX=27
##LASTX=412
##FIRSTY=119
##MAXX=412
##MINX=27
##MAXY=9999
##MINY=10
##NPOINTS=193
##PEAK TABLE=(XY..XY)
27,119 28,30 29,199 39,169
40,80 41,2579 42,129 43,349
44,10 51,20 52,10 53,359
54,40 55,679 56,50 57,279
58,20 59,20 65,70 66,40
67,829 68,1249 69,9999 70,579
71,169 72,10 77,179 78,40
79,399 80,299 81,6129 82,839
83,409 84,50 85,50 91,249
92,219 93,1159 94,729 95,1849
96,239 97,239 98,20 99,10
103,10 104,10 105,279 106,129
107,859 108,319 109,1199 110,169
111,209 112,20 113,10 115,10
117,20 118,10 119,439 120,169
121,1399 122,489 123,1379 124,189
125,90 126,10 127,20 128,10
129,10 131,30 132,30 133,299
134,419 135,1009 136,2439 137,2409
138,269 139,30 143,10 145,80
146,30 147,479 148,239 149,1199
150,329 151,119 152,20 153,20
157,10 159,80 160,30 161,359
162,209 163,349 164,60 165,40
166,10 171,10 173,80 174,30
175,419 176,149 177,349 178,99
179,50 180,10 185,10 187,70
188,30 189,369 190,189 191,589
192,609 193,109 194,10 199,10
201,60 202,40 203,469 204,199
205,329 206,70 207,10 213,10
215,70 216,60 217,219 218,239
219,80 220,20 221,10 227,10
229,99 230,50 231,289 232,70
233,50 234,10 243,50 244,20
245,50 246,20 247,10 255,10
257,99 258,50 259,99 260,109
261,40 271,70 272,70 273,239
274,90 275,20 284,10 285,50
286,90 287,30 288,10 297,50
298,20 299,179 300,60 301,50
302,10 313,20 314,10 315,10
325,70 326,50 327,70 328,239
329,70 330,10 339,20 340,30
341,669 342,189 343,30 353,10
354,10 355,10 357,10 367,249
368,80 369,10 395,50 396,20
408,10 409,10 410,919 411,309
412,60
##END=
