##TITLE=4'-(2-Hydroxybenzylideneamino)acetophenone
##JCAMP-DX=4.24
##DATA TYPE=MASS SPECTRUM
##ORIGIN=NIST Mass Spectrometry Data Center, 1994
##OWNER=NIST Mass Spectrometry Data Center
Collection (C) 2014 copyright by the U.S. Secretary of Commerce
on behalf of the United States of America. All rights reserved.
##CAS REGISTRY NO=788-23-8
##$NIST MASS SPEC NO=135771
##MOLFORM=C15 H13 N O2
##MW=239
##$NIST SOURCE=MSDC
##XUNITS=M/Z
##YUNITS=RELATIVE INTENSITY
##XFACTOR=1
##YFACTOR=1
##FIRSTX=12
##LASTX=241
##FIRSTY=19
##MAXX=241
##MINX=12
##MAXY=9999
##MINY=3
##NPOINTS=113
##PEAK TABLE=(XY..XY)
12,19 14,59 15,533 16,3
17,30 18,42 27,33 28,285
37,89 38,333 39,1205 40,162
41,45 42,33 43,3096 44,52
50,1365 51,2158 52,508 53,206
54,36 55,109 58,39 61,47
62,254 63,892 64,567 65,936
66,297 67,39 70,66 71,120
74,152 75,545 76,1391 77,1776
78,409 79,88 80,25 84,592
86,38 87,77 88,82 89,439
90,255 91,1013 92,251 93,55
94,88 98,247 100,22 101,102
102,484 103,221 104,311 105,364
106,43 112,610 114,123 115,791
116,194 117,70 118,69 119,268
120,991 121,99 125,24 126,56
127,100 128,125 129,55 130,137
131,32 135,24 139,439 140,380
141,685 142,98 144,52 146,80
150,84 151,524 152,270 153,201
154,64 155,75 156,34 164,29
165,58 166,378 167,1132 168,573
169,262 170,81 177,157 178,148
179,368 180,127 181,26 194,126
195,909 196,1005 197,184 198,22
210,102 222,159 224,9999 225,1576
226,163 238,1410 239,7504 240,1225
241,100
##END=
