##TITLE=trans-.beta.-Ionone
##JCAMP-DX=4.24
##DATA TYPE=MASS SPECTRUM
##ORIGIN=NIST Mass Spectrometry Data Center
##OWNER=NIST Mass Spectrometry Data Center
Collection (C) 2014 copyright by the U.S. Secretary of Commerce
on behalf of the United States of America. All rights reserved.
##CAS REGISTRY NO=79-77-6
##$NIST MASS SPEC NO=341919
##MOLFORM=C13 H20 O
##MW=192
##$NIST SOURCE=MSDC
##XUNITS=M/Z
##YUNITS=RELATIVE INTENSITY
##XFACTOR=1
##YFACTOR=1
##FIRSTX=15
##LASTX=193
##FIRSTY=50
##MAXX=193
##MINX=15
##MAXY=9999
##MINY=10
##NPOINTS=112
##PEAK TABLE=(XY..XY)
15,50 26,10 27,240 29,260
38,30 39,721 40,90 41,1251
42,110 43,4244 44,100 45,50
50,80 51,380 52,170 53,591
54,60 55,731 56,50 57,100
58,40 59,10 62,40 63,200
64,80 65,571 66,140 67,380
68,40 69,450 70,20 71,220
72,30 74,20 75,30 76,30
77,1221 78,290 79,981 80,130
81,510 82,60 83,60 85,40
87,10 89,60 90,20 91,1762
92,260 93,1251 94,170 95,871
96,130 97,80 98,10 102,40
103,240 104,80 105,1061 106,180
107,1051 108,200 109,661 110,160
111,30 112,10 115,320 116,110
117,350 118,90 119,791 120,110
121,1041 122,811 123,430 124,30
127,30 128,90 129,110 130,40
131,320 132,50 133,861 134,160
135,1531 136,450 137,50 141,10
142,10 143,30 144,150 145,60
146,10 147,170 148,40 149,801
150,100 151,10 157,30 159,561
160,70 161,130 162,400 163,120
164,10 175,10 177,9999 178,1331
179,90 191,40 192,430 193,60
##END=
