##TITLE=Phytonadione
##JCAMP-DX=4.24
##DATA TYPE=MASS SPECTRUM
##ORIGIN=Japan AIST/NIMC Database- Spectrum MS-NW-1509
##OWNER=NIST Mass Spectrometry Data Center
Collection (C) 2014 copyright by the U.S. Secretary of Commerce
on behalf of the United States of America. All rights reserved.
##CAS REGISTRY NO=84-80-0
##$NIST MASS SPEC NO=233846
##MOLFORM=C31 H46 O2
##MW=450
##$NIST SOURCE=MSDC
##XUNITS=M/Z
##YUNITS=RELATIVE INTENSITY
##XFACTOR=1
##YFACTOR=1
##FIRSTX=15
##LASTX=454
##FIRSTY=10
##MAXX=454
##MINX=15
##MAXY=9999
##MINY=10
##NPOINTS=263
##PEAK TABLE=(XY..XY)
15,10 17,10 18,40 26,10
27,339 28,30 29,1229 30,20
39,269 40,50 41,2519 42,299
43,4759 44,149 50,40 51,70
52,20 53,229 54,50 55,2619
56,449 57,3349 58,139 63,30
64,10 65,90 66,30 67,369
68,189 69,1979 70,269 71,1399
72,70 74,10 75,30 76,199
77,389 78,60 79,219 80,99
81,699 82,199 83,909 84,99
85,539 86,40 89,50 90,10
91,219 92,40 93,209 94,139
95,499 96,99 97,589 98,60
99,99 101,10 102,30 103,60
104,209 105,679 106,70 107,139
108,50 109,399 110,70 111,309
112,50 113,70 114,20 115,269
116,50 117,40 118,10 119,90
120,20 121,109 122,30 123,219
124,60 125,129 126,70 127,99
128,239 129,249 130,80 131,70
132,30 133,339 134,50 135,60
136,30 137,119 138,30 139,50
140,20 141,269 142,99 143,90
144,40 145,50 146,10 147,199
148,30 149,50 150,10 151,50
152,139 153,149 154,50 155,99
156,20 157,269 158,259 159,149
160,60 161,119 162,10 163,20
164,10 165,209 166,99 167,90
168,50 169,219 170,90 171,259
172,99 173,149 174,349 175,80
176,20 177,30 178,159 179,169
180,50 181,379 182,129 183,139
184,70 185,119 186,5399 187,3299
188,579 189,80 190,20 191,40
192,30 193,109 194,80 195,239
196,159 197,1079 198,3469 199,919
200,479 201,109 202,30 203,20
204,10 205,20 206,20 207,109
208,99 209,299 210,289 211,819
212,309 213,229 214,60 215,20
217,10 218,10 219,20 220,20
221,149 222,129 223,309 224,599
225,7769 226,2829 227,1179 228,209
229,30 231,20 232,10 233,10
234,10 235,60 236,40 237,129
238,169 239,619 240,219 241,169
242,159 243,30 247,10 248,10
249,40 250,30 251,99 252,60
253,159 254,149 255,40 256,10
261,10 262,10 263,50 264,50
265,60 266,20 267,209 268,90
269,20 276,20 277,20 278,20
279,10 281,10 291,20 293,10
295,30 296,10 309,10 310,10
311,10 312,10 322,10 324,10
327,10 337,10 338,10 365,20
379,10 382,10 393,10 407,20
408,20 419,10 421,20 422,40
423,10 430,10 431,10 432,50
433,60 434,60 435,439 436,139
437,40 438,10 446,60 447,30
448,239 449,139 450,9999 451,3389
452,959 453,189 454,30
##END=
