##TITLE=Benzene, 1-chloro-2-ethyl-
##JCAMP-DX=4.24
##DATA TYPE=MASS SPECTRUM
##OWNER=NIST Mass Spectrometry Data Center
Collection (C) 2014 copyright by the U.S. Secretary of Commerce
on behalf of the United States of America. All rights reserved.
##CAS REGISTRY NO=89-96-3
##$NIST MASS SPEC NO=3722
##MOLFORM=C8 H9 Cl
##MW=140
##$NIST SOURCE=MSDC
##XUNITS=M/Z
##YUNITS=RELATIVE INTENSITY
##XFACTOR=1
##YFACTOR=1
##FIRSTX=14
##LASTX=144
##FIRSTY=10
##MAXX=144
##MINX=14
##MAXY=9999
##MINY=10
##NPOINTS=102
##PEAK TABLE=(XY..XY)
14,10 15,20 17,10 18,20
26,30 27,250 28,20 29,20
32,10 35,10 36,10 37,50
38,120 39,450 40,30 41,20
42,10 43,40 44,20 45,10
47,10 48,10 49,70 50,530
51,1501 52,340 53,80 54,10
55,10 56,10 60,10 61,80
62,200 63,591 64,90 65,120
66,10 67,10 68,40 69,110
70,50 71,10 72,20 73,210
74,260 75,510 76,180 77,1331
78,310 79,410 80,30 81,10
84,30 85,70 86,60 87,70
88,20 89,841 90,220 91,30
92,10 96,10 97,40 98,40
99,350 100,30 101,240 102,20
103,1011 104,250 105,5645 106,500
107,20 108,10 109,10 110,10
111,70 112,110 113,40 114,40
115,10 117,10 118,10 119,10
120,10 121,10 123,20 124,10
125,9999 126,761 127,3213 128,250
129,10 136,10 137,10 138,20
139,210 140,4104 141,440 142,1321
143,120 144,10
##END=
