##TITLE=5-Methyl-1-phenylpyrazole-4-carboxylic acid
##JCAMP-DX=4.24
##DATA TYPE=MASS SPECTRUM
##ORIGIN=NIST Mass Spectrometry Data Center, 1994
##OWNER=NIST Mass Spectrometry Data Center
Collection (C) 2014 copyright by the U.S. Secretary of Commerce
on behalf of the United States of America. All rights reserved.
##CAS REGISTRY NO=91138-00-0
##$NIST MASS SPEC NO=136922
##MOLFORM=C11 H10 N2 O2
##MW=202
##$NIST SOURCE=MSDC
##XUNITS=M/Z
##YUNITS=RELATIVE INTENSITY
##XFACTOR=1
##YFACTOR=1
##FIRSTX=14
##LASTX=205
##FIRSTY=113
##MAXX=205
##MINX=14
##MAXY=9999
##MINY=2
##NPOINTS=100
##PEAK TABLE=(XY..XY)
14,113 15,186 16,98 18,47
26,262 27,934 28,1004 29,209
30,42 31,65 32,89 37,303
38,805 39,1601 40,292 41,243
42,270 43,238 44,19 45,640
49,80 50,1229 51,4948 52,848
53,347 54,218 55,247 61,80
62,259 63,665 64,773 65,533
66,387 67,293 68,141 69,100
70,57 74,246 75,260 76,451
77,6556 78,1171 79,322 80,137
81,82 82,62 83,65 87,65
88,109 89,438 90,308 91,842
92,635 93,193 94,82 101,226
102,335 103,448 104,513 105,471
106,93 107,61 109,59 114,107
115,215 116,411 117,408 118,820
119,159 123,65 126,74 127,259
128,877 129,652 130,1507 131,427
132,112 133,46 140,121 141,609
142,391 143,220 144,155 145,149
155,620 156,698 157,2198 158,924
159,173 171,69 183,722 184,720
185,1987 186,258 188,22 201,3528
202,9999 203,1260 204,75 205,2
##END=
