##TITLE=Chalcone
##JCAMP-DX=4.24
##DATA TYPE=MASS SPECTRUM
##ORIGIN=Chemical Concepts
##OWNER=NIST Mass Spectrometry Data Center
Collection (C) 2014 copyright by the U.S. Secretary of Commerce
on behalf of the United States of America. All rights reserved.
##CAS REGISTRY NO=94-41-7
##$NIST MASS SPEC NO=154922
##MOLFORM=C15 H12 O
##MW=208
##$NIST SOURCE=MSDC
##XUNITS=M/Z
##YUNITS=RELATIVE INTENSITY
##XFACTOR=1
##YFACTOR=1
##FIRSTX=26
##LASTX=210
##FIRSTY=83
##MAXX=210
##MINX=26
##MAXY=9999
##MINY=1
##NPOINTS=149
##PEAK TABLE=(XY..XY)
26,83 27,413 29,9 31,5
37,62 38,160 39,513 41,25
42,4 43,10 45,1 47,7
49,42 50,1486 51,4791 52,609
53,147 54,11 55,2 56,7
57,6 58,1 60,7 61,49
62,222 63,594 64,89 65,70
66,10 67,4 68,2 69,117
70,2 71,2 72,4 73,51
74,525 75,551 76,1101 77,9999
78,957 79,53 80,5 81,6
82,17 83,8 84,2 85,16
86,53 87,90 88,89 89,937
90,304 91,47 92,6 93,8
94,7 95,24 96,2 97,17
98,73 99,26 100,25 101,152
102,1409 103,5030 104,550 105,3487
106,321 107,24 108,5 109,10
110,9 111,12 112,9 113,23
114,15 115,90 116,15 117,3
118,8 119,29 120,7 121,5
122,52 123,8 125,10 126,46
127,42 128,37 129,43 130,1433
131,4192 132,385 133,43 134,10
135,8 137,10 138,12 139,66
140,9 141,17 142,2 143,8
145,7 147,37 148,6 149,7
150,57 151,90 152,242 153,73
154,23 155,3 162,8 163,23
164,28 165,962 166,143 167,28
168,8 169,96 170,8 174,8
175,9 176,156 177,138 178,964
179,2123 180,602 181,80 182,15
185,8 187,13 188,10 189,88
190,52 191,146 192,36 193,58
194,17 195,8 203,6 205,18
206,11 207,8130 208,8516 209,1345
210,125
##END=
