##TITLE=Benzene, 1,2,3,4-tetrachloro-5,6-dimethoxy-
##JCAMP-DX=4.24
##DATA TYPE=MASS SPECTRUM
##ORIGIN=R.SELF, FOOD RESEARCH INSTITUTE, NORWICH, UK
##OWNER=NIST Mass Spectrometry Data Center
Collection (C) 2014 copyright by the U.S. Secretary of Commerce
on behalf of the United States of America. All rights reserved.
##CAS REGISTRY NO=944-61-6
##$NIST MASS SPEC NO=26656
##MOLFORM=C8 H6 Cl4 O2
##MW=274
##$NIST SOURCE=MSDC
##XUNITS=M/Z
##YUNITS=RELATIVE INTENSITY
##XFACTOR=1
##YFACTOR=1
##FIRSTX=28
##LASTX=280
##FIRSTY=909
##MAXX=280
##MINX=28
##MAXY=9999
##MINY=9
##NPOINTS=150
##PEAK TABLE=(XY..XY)
28,909 29,2209 30,549 31,719
35,1199 36,5389 37,779 38,1989
39,199 40,9 41,469 42,419
43,1529 44,1369 45,729 47,789
48,559 49,429 50,489 51,89
55,249 56,29 57,69 59,209
60,929 61,629 62,249 63,869
65,169 67,39 70,69 71,729
72,219 73,539 74,389 75,199
76,339 77,119 79,29 81,119
83,1959 84,429 85,969 87,1589
89,539 94,369 95,1999 96,39
97,1019 98,319 106,389 107,679
108,539 109,589 111,2389 112,199
113,859 118,2859 119,309 120,1979
122,369 130,1579 131,909 132,1089
133,1009 134,249 135,419 141,349
142,469 143,809 144,439 145,669
146,429 147,329 148,199 153,2299
155,2169 157,779 161,449 163,329
165,1429 166,249 167,2799 168,429
169,1849 170,359 171,529 177,289
178,439 179,619 180,619 181,2559
182,399 183,1959 184,199 185,639
188,1069 190,1449 192,749 194,479
195,1489 196,3819 197,1459 198,3449
199,679 200,1199 201,669 202,369
203,819 205,499 207,179 209,809
211,749 213,529 215,329 216,4089
217,459 218,5149 219,449 220,2319
222,569 224,289 225,209 226,149
228,279 230,329 231,2429 232,399
233,3069 234,259 235,1489 237,339
245,199 247,249 257,199 258,279
259,7669 260,1069 261,9369 262,1159
263,4389 264,519 265,1069 274,7529
275,679 276,9999 277,999 278,4669
279,439 280,979
##END=
