##TITLE=Phenol, 2,4,5-trichloro-
##JCAMP-DX=4.24
##DATA TYPE=MASS SPECTRUM
##ORIGIN=Japan AIST/NIMC Database- Spectrum MS-NW-1449
##OWNER=NIST Mass Spectrometry Data Center
Collection (C) 2014 copyright by the U.S. Secretary of Commerce
on behalf of the United States of America. All rights reserved.
##CAS REGISTRY NO=95-95-4
##$NIST MASS SPEC NO=229685
##MOLFORM=C6 H3 Cl3 O
##MW=196
##$NIST SOURCE=MSDC
##XUNITS=M/Z
##YUNITS=RELATIVE INTENSITY
##XFACTOR=1
##YFACTOR=1
##FIRSTX=12
##LASTX=203
##FIRSTY=20
##MAXX=203
##MINX=12
##MAXY=9999
##MINY=10
##NPOINTS=127
##PEAK TABLE=(XY..XY)
12,20 14,10 18,10 24,20
25,60 26,40 28,69 29,129
31,90 35,80 36,179 37,519
38,169 39,40 41,10 42,10
44,30 45,50 47,159 48,969
49,489 50,199 51,50 52,10
53,589 54,30 59,10 60,299
61,1079 62,1449 63,639 64,40
65,50 66,479 67,289 68,40
69,10 71,139 72,429 73,779
74,229 75,209 76,40 77,20
79,10 80,269 81,169 82,40
83,299 84,139 85,209 86,50
87,129 88,10 89,60 90,90
91,40 94,10 95,70 96,339
97,4209 98,699 99,1679 100,229
101,20 102,10 106,30 107,439
108,109 109,309 110,40 111,60
113,20 117,10 118,20 119,20
120,20 121,10 123,10 124,20
125,90 126,60 127,30 128,20
130,10 131,90 132,2699 133,1419
134,1789 135,909 136,329 137,149
138,10 143,30 144,10 145,10
149,70 151,50 153,10 160,499
161,149 162,349 163,99 164,70
165,20 167,269 168,50 169,269
170,40 171,80 172,10 177,80
178,10 179,50 181,10 192,149
193,10 194,90 195,50 196,9999
197,689 198,9499 199,639 200,3039
201,199 202,329 203,20
##END=
