##TITLE=Uracil, 2TMS derivative
##JCAMP-DX=4.24
##DATA TYPE=MASS SPECTRUM
##ORIGIN=Chemical Concepts
##OWNER=NIST Mass Spectrometry Data Center
Collection (C) 2014 copyright by the U.S. Secretary of Commerce
on behalf of the United States of America. All rights reserved.
##CAS REGISTRY NO=10457-14-4
##$NIST MASS SPEC NO=149707
##MOLFORM=C10 H20 N2 O2 Si2
##MW=256
##$NIST SOURCE=MSDC
##XUNITS=M/Z
##YUNITS=RELATIVE INTENSITY
##XFACTOR=1
##YFACTOR=1
##FIRSTX=25
##LASTX=259
##FIRSTY=3
##MAXX=259
##MINX=25
##MAXY=9999
##MINY=2
##NPOINTS=211
##PEAK TABLE=(XY..XY)
25,3 26,14 27,39 28,74
29,137 30,10 31,58 36,7
38,3 39,35 40,53 41,23
42,68 43,643 44,292 45,1648
46,133 47,109 48,6 49,10
50,6 51,30 52,52 53,46
54,29 55,115 56,58 57,140
58,223 59,399 60,39 61,46
62,18 63,9 64,12 65,14
66,216 67,51 68,50 69,93
70,239 71,117 72,333 73,4300
74,414 75,381 76,102 77,86
78,42 79,21 80,16 81,11
82,24 83,49 84,117 85,313
86,126 87,68 88,9 89,37
90,62 91,34 92,18 93,29
94,13 95,30 96,137 97,58
98,260 99,5804 100,1078 101,380
102,74 103,51 104,10 105,226
106,79 107,18 108,7 109,70
110,19 111,58 112,40 113,2622
114,515 115,83 116,33 117,180
118,41 119,38 120,14 121,10
123,5 124,31 125,28 126,985
127,147 128,64 129,35 130,20
131,559 132,90 133,339 134,54
135,25 136,5 137,11 138,14
139,23 140,43 141,63 142,39
143,23 144,24 145,10 146,15
147,4112 148,644 149,337 150,28
151,13 152,6 153,60 154,12
155,14 156,64 157,111 158,86
159,28 160,10 161,10 163,3
165,3 166,39 167,66 168,19
169,76 170,26 171,28 172,46
173,20 174,58 175,9 176,6
177,3 178,2 179,5 180,3
181,19 182,66 183,140 184,70
185,111 186,25 187,12 188,9
197,29 198,25 199,21 200,11
201,5 203,7 204,6 205,4
206,6 207,9 208,6 209,13
210,11 211,69 212,27 213,19
214,7 215,5 216,3 222,3
223,17 224,24 225,84 226,74
227,116 229,35 230,18 231,13
232,13 233,9 234,15 235,14
236,16 237,20 238,23 239,168
240,84 241,9999 242,2018 243,906
244,138 245,26 246,5 247,7
249,7 250,6 251,7 252,12
253,34 254,545 255,2841 256,5310
257,1247 258,484 259,80
##END=
