##TITLE=2,6-Dibromo-4-isopropylaniline
##JCAMP-DX=4.24
##DATA TYPE=MASS SPECTRUM
##ORIGIN=NIST Mass Spectrometry Data Center
##OWNER=NIST Mass Spectrometry Data Center
Collection (C) 2014 copyright by the U.S. Secretary of Commerce
on behalf of the United States of America. All rights reserved.
##CAS REGISTRY NO=10546-65-3
##$NIST MASS SPEC NO=340881
##MOLFORM=C9 H11 Br2 N
##MW=291
##$NIST SOURCE=MSDC
##XUNITS=M/Z
##YUNITS=RELATIVE INTENSITY
##XFACTOR=1
##YFACTOR=1
##FIRSTX=15
##LASTX=296
##FIRSTY=140
##MAXX=296
##MINX=15
##MAXY=9999
##MINY=10
##NPOINTS=165
##PEAK TABLE=(XY..XY)
15,140 26,90 27,571 29,90
30,40 37,170 38,400 39,1331
40,120 41,711 42,210 43,220
44,120 45,180 49,50 50,520
51,1051 52,1822 53,510 54,200
55,40 56,60 57,500 58,2132
61,440 62,1031 63,1792 64,631
65,1702 66,520 68,30 73,70
74,390 75,490 76,601 77,851
78,591 79,370 80,100 81,60
82,20 83,10 85,180 86,230
87,320 88,390 89,2122 90,2222
91,2342 92,520 93,280 94,50
95,30 97,320 98,731 99,450
101,140 102,440 103,601 104,671
105,791 106,611 107,310 108,30
109,10 110,10 111,10 112,10
113,30 114,210 115,621 116,1171
117,3873 118,2212 119,340 120,50
121,30 124,40 125,90 126,40
128,60 129,50 130,801 131,490
132,1401 133,591 134,80 138,30
139,60 140,50 141,90 142,50
143,170 144,40 145,90 146,20
147,10 154,10 155,30 156,50
157,30 158,70 159,10 160,20
167,30 168,140 169,240 170,210
171,320 172,90 173,120 174,10
180,10 182,90 183,100 184,340
185,130 186,260 187,30 194,20
195,220 196,500 197,4764 198,911
199,4404 200,380 201,10 210,40
211,140 212,270 213,150 214,220
215,20 221,10 223,20 225,10
238,10 249,80 250,10 251,140
252,10 253,70 262,90 263,10
264,180 265,20 266,80 267,10
273,10 274,50 275,130 276,5285
277,681 278,9999 279,1001 280,4914
281,430 282,10 290,40 291,1631
292,230 293,3093 294,340 295,1521
296,140
##END=
