##TITLE=1H-Indene, 2,3-dihydro-1,1,4,7-tetramethyl-
##JCAMP-DX=4.24
##DATA TYPE=MASS SPECTRUM
##OWNER=NIST Mass Spectrometry Data Center
Collection (C) 2014 copyright by the U.S. Secretary of Commerce
on behalf of the United States of America. All rights reserved.
##CAS REGISTRY NO=1078-04-2
##$NIST MASS SPEC NO=6931
##MOLFORM=C13 H18
##MW=174
##$NIST SOURCE=MSDC
##XUNITS=M/Z
##YUNITS=RELATIVE INTENSITY
##XFACTOR=1
##YFACTOR=1
##FIRSTX=13
##LASTX=176
##FIRSTY=10
##MAXX=176
##MINX=13
##MAXY=9999
##MINY=10
##NPOINTS=119
##PEAK TABLE=(XY..XY)
13,10 14,20 15,300 16,10
17,10 18,20 26,100 27,791
28,200 29,340 30,10 37,20
38,60 39,641 40,60 41,330
42,20 43,30 44,10 49,10
50,140 51,420 52,110 53,240
54,10 55,40 56,10 57,20
58,40 59,10 61,10 62,70
63,280 64,160 65,230 66,20
67,50 68,10 69,20 70,70
71,350 72,70 73,10 74,60
75,90 76,120 77,420 78,140
79,120 80,30 81,10 82,10
83,10 84,10 85,20 86,50
87,50 88,20 89,90 90,20
91,400 92,10 93,20 96,10
98,10 99,10 100,10 101,30
102,90 103,120 104,40 105,180
106,20 107,20 111,10 113,20
114,30 115,621 116,120 117,160
118,80 119,310 120,10 121,10
125,10 126,40 127,280 128,1001
129,841 130,120 131,200 132,20
133,30 139,70 140,30 141,450
142,260 143,480 144,931 145,60
146,10 150,10 151,20 152,50
153,40 154,20 155,50 156,40
157,150 158,140 159,9999 161,10
165,10 171,10 172,40 173,80
174,1621 175,10 176,10
##END=
