##TITLE=Undecylenic acid
##JCAMP-DX=4.24
##DATA TYPE=MASS SPECTRUM
##ORIGIN=Japan AIST/NIMC Database- Spectrum MS-NW- 558
##OWNER=NIST Mass Spectrometry Data Center
Collection (C) 2014 copyright by the U.S. Secretary of Commerce
on behalf of the United States of America. All rights reserved.
##CAS REGISTRY NO=112-38-9
##$NIST MASS SPEC NO=227712
##MOLFORM=C11 H20 O2
##MW=184
##$NIST SOURCE=MSDC
##XUNITS=M/Z
##YUNITS=RELATIVE INTENSITY
##XFACTOR=1
##YFACTOR=1
##FIRSTX=12
##LASTX=185
##FIRSTY=10
##MAXX=185
##MINX=12
##MAXY=9999
##MINY=10
##NPOINTS=137
##PEAK TABLE=(XY..XY)
12,10 14,30 15,119 16,40
17,239 18,1109 19,10 20,10
22,10 26,109 27,1769 28,379
29,2149 30,60 31,199 32,70
36,20 37,10 38,60 39,1919
40,309 41,6349 42,1339 43,1759
44,739 45,809 46,20 47,20
50,50 51,129 52,80 53,689
54,1509 55,9999 56,2139 57,679
58,199 59,679 60,2769 61,289
62,30 63,30 64,10 65,109
66,139 67,1579 68,2719 69,5189
70,1409 71,519 72,60 73,2589
74,279 75,30 76,10 77,90
78,60 79,349 80,419 81,1459
82,3329 83,3959 84,2269 85,369
86,109 87,829 88,109 89,20
91,99 92,40 93,209 94,369
95,1019 96,2499 97,1749 98,1409
99,369 100,989 101,879 102,129
103,40 104,10 105,60 106,99
107,159 108,90 109,439 110,869
111,509 112,229 113,309 114,949
115,229 116,80 117,30 118,10
119,169 120,90 121,40 122,749
123,819 124,1809 125,559 126,50
127,249 128,99 129,80 130,20
131,10 132,10 133,60 134,10
135,40 136,20 137,499 138,319
139,30 140,10 141,119 142,40
143,20 145,10 147,20 148,269
149,60 150,10 151,60 152,10
155,50 156,10 165,10 166,509
167,70 168,10 182,10 184,50
185,10
##END=
