##TITLE=Butylthiobenzene
##JCAMP-DX=4.24
##DATA TYPE=MASS SPECTRUM
##ORIGIN=J.E. DOOLEY, U.S. BUREAU OF MINES, BARTLESVILLE, OKLA., USA
##OWNER=NIST Mass Spectrometry Data Center
Collection (C) 2014 copyright by the U.S. Secretary of Commerce
on behalf of the United States of America. All rights reserved.
##CAS REGISTRY NO=1126-80-3
##$NIST MASS SPEC NO=6277
##MOLFORM=C10 H14 S
##MW=166
##$NIST SOURCE=MSDC
##XUNITS=M/Z
##YUNITS=RELATIVE INTENSITY
##XFACTOR=1
##YFACTOR=1
##FIRSTX=24
##LASTX=169
##FIRSTY=2
##MAXX=169
##MINX=24
##MAXY=9999
##MINY=2
##NPOINTS=122
##PEAK TABLE=(XY..XY)
24,2 25,17 26,346 27,2119
28,337 29,2495 30,55 32,21
33,12 34,17 35,10 36,3
37,75 38,210 39,1683 40,117
41,1399 42,86 43,55 44,13
45,1785 46,130 47,178 48,10
49,35 50,460 51,1177 52,131
53,121 54,22 55,291 56,77
57,653 58,188 59,215 60,44
61,47 62,73 63,203 64,41
65,1130 66,602 67,35 68,10
69,616 70,53 71,110 72,11
73,45 74,110 75,98 76,79
77,965 78,242 79,218 80,17
81,17 82,158 83,92 84,234
85,28 86,13 87,11 88,6
89,37 90,14 91,266 92,25
93,22 94,4 95,19 96,4
97,39 98,3 99,2 101,2
102,8 103,45 104,38 105,52
106,19 107,19 108,219 109,1648
110,9999 111,822 112,466 113,32
114,3 115,18 116,11 117,29
118,5 119,3 121,77 122,22
123,2836 124,323 125,141 126,14
127,2 128,3 129,2 131,4
132,4 133,5 134,30 135,105
136,21 137,278 138,29 139,14
147,7 149,7 151,11 152,4
164,3 165,25 166,4792 167,563
168,230 169,24
##END=
