##TITLE=Benzaldehyde, (2,4-dinitrophenyl)hydrazone
##JCAMP-DX=4.24
##DATA TYPE=MASS SPECTRUM
##ORIGIN=Japan AIST/NIMC Database- Spectrum MS-IW-6504
##OWNER=NIST Mass Spectrometry Data Center
Collection (C) 2014 copyright by the U.S. Secretary of Commerce
on behalf of the United States of America. All rights reserved.
##CAS REGISTRY NO=1157-84-2
##$NIST MASS SPEC NO=241841
##MOLFORM=C13 H10 N4 O4
##MW=286
##$NIST SOURCE=MSDC
##XUNITS=M/Z
##YUNITS=RELATIVE INTENSITY
##XFACTOR=1
##YFACTOR=1
##FIRSTX=26
##LASTX=289
##FIRSTY=30
##MAXX=289
##MINX=26
##MAXY=9999
##MINY=10
##NPOINTS=161
##PEAK TABLE=(XY..XY)
26,30 27,70 28,50 29,10
30,289 37,30 38,99 39,299
40,50 41,50 42,10 43,40
44,50 49,10 50,219 51,929
52,289 53,70 54,20 55,20
57,10 61,30 62,179 63,609
64,439 65,159 66,80 67,20
68,30 69,80 70,20 73,10
74,99 75,289 76,419 77,2419
78,829 79,1539 80,139 81,20
82,60 83,80 86,10 87,30
88,60 89,659 90,629 91,329
92,359 93,70 94,30 95,10
96,50 97,20 98,20 99,10
101,10 102,50 103,599 104,1059
105,859 106,419 107,4079 108,329
109,20 111,50 112,10 113,30
114,30 115,179 116,70 117,40
118,40 119,30 120,50 121,20
122,379 123,30 126,40 127,50
128,50 129,30 130,10 132,129
133,20 134,50 135,90 136,20
137,40 138,70 139,359 140,189
141,40 142,10 143,169 149,10
150,20 151,109 152,929 153,159
154,90 155,20 156,10 162,10
163,229 164,549 165,789 166,719
167,309 168,80 169,10 176,10
177,50 178,239 179,139 180,559
181,359 182,90 183,40 191,60
192,479 193,549 194,259 195,229
196,40 204,10 205,319 206,70
207,20 208,20 209,129 210,50
211,50 212,50 221,20 222,10
223,20 224,139 225,60 226,50
227,10 238,30 239,269 240,119
241,129 242,30 251,299 252,90
253,30 254,10 256,50 267,30
268,10 269,20 270,70 271,10
285,279 286,9999 287,1619 288,209
289,20
##END=
