##TITLE=Clorophene
##JCAMP-DX=4.24
##DATA TYPE=MASS SPECTRUM
##ORIGIN=Japan AIST/NIMC Database- Spectrum MS-NW-5639
##OWNER=NIST Mass Spectrometry Data Center
Collection (C) 2014 copyright by the U.S. Secretary of Commerce
on behalf of the United States of America. All rights reserved.
##CAS REGISTRY NO=120-32-1
##$NIST MASS SPEC NO=232679
##MOLFORM=C13 H11 Cl O
##MW=218
##$NIST SOURCE=MSDC
##XUNITS=M/Z
##YUNITS=RELATIVE INTENSITY
##XFACTOR=1
##YFACTOR=1
##FIRSTX=14
##LASTX=222
##FIRSTY=50
##MAXX=222
##MINX=14
##MAXY=9999
##MINY=10
##NPOINTS=174
##PEAK TABLE=(XY..XY)
14,50 15,10 16,20 17,50
18,269 26,40 27,189 28,20
29,50 30,10 31,10 35,10
36,50 37,50 38,139 39,619
40,50 41,109 42,20 43,30
44,50 47,10 49,30 50,489
51,1319 52,269 53,139 54,20
55,499 56,30 57,20 58,10
60,30 61,99 62,269 63,819
64,389 65,719 66,70 67,20
68,30 69,90 70,30 71,20
72,20 73,189 74,299 75,549
76,1069 77,2039 78,1339 79,139
80,20 81,189 82,679 83,70
84,40 85,70 86,119 87,179
88,60 89,449 90,359 91,2179
92,149 93,30 94,20 95,20
96,10 97,40 98,99 99,159
100,80 101,169 102,229 103,99
104,30 105,179 106,60 107,20
108,20 109,109 110,70 111,139
112,2579 113,349 114,909 115,569
116,80 117,10 123,30 124,10
125,80 126,229 127,419 128,319
129,159 130,30 131,20 132,10
134,10 135,10 136,20 137,30
138,50 139,299 140,6839 141,989
142,2279 143,299 144,40 145,10
146,20 147,10 148,20 149,80
150,139 151,429 152,1599 153,1319
154,529 155,609 156,80 157,20
160,10 161,20 162,40 163,259
164,319 165,2939 166,659 167,99
168,209 169,30 170,10 171,10
173,20 174,129 175,40 176,99
177,20 178,30 179,30 180,50
181,1299 182,1059 183,6999 184,1109
185,99 186,30 187,10 188,20
189,50 190,10 191,30 192,10
193,10 195,119 196,20 197,10
198,10 199,199 200,40 201,149
202,60 214,10 215,279 216,80
217,519 218,9999 219,1559 220,3249
221,469 222,50
##END=
