##TITLE=Griseofulvin
##JCAMP-DX=4.24
##DATA TYPE=MASS SPECTRUM
##ORIGIN=Japan AIST/NIMC Database- Spectrum MS-IW-1186
##OWNER=NIST Mass Spectrometry Data Center
Collection (C) 2014 copyright by the U.S. Secretary of Commerce
on behalf of the United States of America. All rights reserved.
##CAS REGISTRY NO=126-07-8
##$NIST MASS SPEC NO=238364
##MOLFORM=C17 H17 Cl O6
##MW=352
##$NIST SOURCE=MSDC
##XUNITS=M/Z
##YUNITS=RELATIVE INTENSITY
##XFACTOR=1
##YFACTOR=1
##FIRSTX=14
##LASTX=357
##FIRSTY=10
##MAXX=357
##MINX=14
##MAXY=9999
##MINY=10
##NPOINTS=312
##PEAK TABLE=(XY..XY)
14,10 15,419 18,20 26,40
27,399 28,109 29,99 31,30
36,20 37,40 38,90 39,759
40,169 41,999 42,139 43,359
44,10 45,70 49,60 50,189
51,469 52,329 53,1059 54,90
55,479 56,60 57,90 59,739
60,40 61,129 62,219 63,359
64,169 65,699 66,479 67,559
68,119 69,3109 70,129 71,30
72,109 73,219 74,159 75,459
76,109 77,859 78,229 79,389
80,209 81,109 82,40 83,189
84,209 85,179 86,109 87,189
88,70 89,189 90,149 91,159
92,90 93,259 94,119 95,799
96,239 97,469 98,129 99,329
100,159 101,149 102,119 103,329
104,50 105,169 106,109 107,139
108,109 109,599 110,519 111,209
112,209 113,219 114,90 115,239
116,80 117,99 118,50 119,90
120,40 121,169 122,70 123,1029
124,189 125,319 126,369 127,559
128,129 129,299 130,60 131,109
132,60 133,239 134,80 135,259
136,129 137,379 138,8189 139,929
140,1779 141,609 142,719 143,339
144,109 145,159 146,80 147,80
148,60 149,149 150,109 151,159
152,359 153,219 154,90 155,329
156,219 157,229 158,99 159,149
160,50 161,109 162,90 163,119
164,179 165,389 166,99 167,189
168,789 169,419 170,409 171,1369
172,349 173,479 174,139 175,90
176,159 177,109 178,109 179,259
180,159 181,219 182,99 183,389
184,269 185,409 186,329 187,219
188,249 189,119 190,109 191,90
192,60 193,139 194,109 195,169
196,129 197,899 198,219 199,459
200,479 201,1379 202,309 203,509
204,99 205,109 206,80 207,149
208,129 209,279 210,179 211,339
212,149 213,289 214,5539 215,5649
216,2399 217,1929 218,259 219,109
220,90 221,219 222,239 223,339
224,259 225,609 226,199 227,279
228,249 229,149 230,109 231,90
232,50 233,90 234,559 235,309
236,569 237,859 238,389 239,1109
240,399 241,439 242,179 243,139
244,60 245,90 246,70 247,70
248,90 249,239 250,389 251,519
252,809 253,1419 254,2379 255,1049
256,809 257,319 258,139 259,99
260,40 261,90 262,80 263,179
264,129 265,269 266,449 267,1189
268,389 269,939 270,179 271,329
272,90 273,119 274,60 275,80
276,169 277,249 278,179 279,259
280,209 281,539 282,1449 283,849
284,3039 285,659 286,969 287,329
288,70 289,90 290,40 291,149
292,159 293,489 294,199 295,849
296,189 297,259 298,50 299,30
300,40 301,30 302,40 303,90
304,50 305,129 306,169 307,149
308,119 309,509 310,8719 311,2239
312,3079 313,729 314,109 315,20
316,40 317,179 318,199 319,159
320,109 321,4959 322,1069 323,1949
324,519 325,159 326,70 327,10
333,10 334,90 335,309 336,109
337,1319 338,259 339,429 340,80
341,10 351,99 352,9999 353,2019
354,3469 355,659 356,99 357,10
##END=
