##TITLE=Pregnan-3.alpha.-ol-20-one
##JCAMP-DX=4.24
##DATA TYPE=MASS SPECTRUM
##ORIGIN=R. I. REED UNIVERSITY OF GLASGOW
##OWNER=NIST Mass Spectrometry Data Center
Collection (C) 2014 copyright by the U.S. Secretary of Commerce
on behalf of the United States of America. All rights reserved.
##CAS REGISTRY NO=128-20-1
##$NIST MASS SPEC NO=15023
##MOLFORM=C21 H34 O2
##MW=318
##$NIST SOURCE=MSDC
##XUNITS=M/Z
##YUNITS=RELATIVE INTENSITY
##XFACTOR=1
##YFACTOR=1
##FIRSTX=40
##LASTX=320
##FIRSTY=188
##MAXX=320
##MINX=40
##MAXY=9999
##MINY=2
##NPOINTS=248
##PEAK TABLE=(XY..XY)
40,188 41,3762 42,536 43,9999
44,242 45,280 50,61 51,120
52,54 53,1075 54,259 55,3362
56,289 57,529 58,214 59,76
60,12 61,20 62,13 63,38
64,23 65,379 66,251 67,2818
68,867 69,1146 70,209 71,2303
72,124 73,28 74,23 75,31
76,2 77,1184 78,363 79,2804
80,683 81,3362 82,460 83,668
84,3390 85,1006 86,124 87,18
89,46 90,10 91,2232 92,478
93,2732 94,1438 95,3233 96,338
97,369 98,100 99,66 100,31
101,12 102,33 103,102 104,107
105,2246 106,890 107,2690 108,1375
109,1400 110,193 111,300 112,41
113,30 114,7 115,134 116,73
117,351 118,280 119,1311 120,961
121,1917 122,777 123,600 124,193
125,114 126,12 127,21 128,91
129,129 130,76 131,584 132,518
133,1215 134,787 135,1199 136,333
137,254 138,86 139,45 140,13
141,49 142,48 143,160 144,99
145,958 146,358 147,1451 148,518
149,805 150,150 151,94 152,25
153,16 154,16 155,38 156,31
157,214 158,110 159,844 160,412
161,1118 162,457 163,359 164,91
165,107 166,30 167,16 168,8
169,46 170,25 171,193 172,137
173,628 174,379 175,721 176,359
177,193 178,66 179,38 180,10
181,8 182,10 183,30 184,13
185,180 186,119 187,475 188,284
189,308 190,277 191,272 192,132
193,51 194,10 195,13 196,6
197,56 198,16 199,178 200,115
201,572 202,198 203,234 204,350
205,188 206,61 207,20 208,8
211,86 212,40 213,373 214,183
215,3090 216,917 217,526 218,148
219,61 220,28 225,78 226,46
227,335 228,198 229,775 230,1064
231,308 232,94 233,236 234,158
235,30 236,8 237,2 238,5
239,40 240,64 241,104 242,866
243,279 244,158 245,257 246,747
247,160 248,117 249,18 250,16
253,129 254,51 255,282 256,160
257,792 258,290 259,143 260,218
261,97 262,13 263,7 264,3
265,33 266,13 267,264 268,68
269,38 270,13 271,79 272,119
273,99 274,120 275,56 276,15
281,15 282,262 283,122 284,63
285,1009 286,214 287,56 288,10
289,7 298,76 299,40 300,3920
301,928 302,158 303,139 304,35
305,3 314,5 315,3 316,79
317,25 318,834 319,200 320,23
##END=
