##TITLE=4-Chloro-2-cyclohexylphenol
##JCAMP-DX=4.24
##DATA TYPE=MASS SPECTRUM
##ORIGIN=NIST Mass Spectrometry Data Center
##OWNER=NIST Mass Spectrometry Data Center
Collection (C) 2014 copyright by the U.S. Secretary of Commerce
on behalf of the United States of America. All rights reserved.
##CAS REGISTRY NO=13081-17-9
##$NIST MASS SPEC NO=340616
##MOLFORM=C12 H15 Cl O
##MW=210
##$NIST SOURCE=MSDC
##XUNITS=M/Z
##YUNITS=RELATIVE INTENSITY
##XFACTOR=1
##YFACTOR=1
##FIRSTX=15
##LASTX=214
##FIRSTY=30
##MAXX=214
##MINX=15
##MAXY=9999
##MINY=10
##NPOINTS=157
##PEAK TABLE=(XY..XY)
15,30 26,70 27,711 29,621
30,10 31,10 36,10 37,30
38,130 39,1371 40,140 41,1822
42,150 43,180 44,20 45,20
49,40 50,330 51,1131 52,260
53,701 54,170 55,751 56,170
57,80 58,70 59,20 61,70
62,240 63,971 64,270 65,961
66,220 67,470 68,70 69,1341
70,100 71,20 72,100 73,320
74,210 75,621 76,230 77,2762
78,571 79,571 80,60 81,490
82,210 83,30 84,20 85,70
86,90 87,170 88,80 89,1171
90,300 91,2903 92,250 93,50
94,30 95,40 96,10 97,50
98,50 99,430 100,100 101,490
102,550 103,1161 104,250 105,430
106,110 107,3013 108,240 109,30
110,20 111,160 112,230 113,480
114,250 115,1211 116,280 117,290
118,160 119,430 120,120 121,110
122,10 123,50 124,60 125,981
126,370 127,851 128,1571 129,350
130,410 131,1651 132,3203 133,1481
134,140 135,30 136,40 137,40
138,40 139,330 140,190 141,9999
142,1852 143,3333 144,651 145,490
146,440 147,150 148,10 149,100
150,20 151,70 152,200 153,671
154,7227 155,1081 156,2382 157,310
158,50 159,50 160,20 162,20
163,20 164,10 165,350 166,80
167,3974 168,631 169,1251 170,190
171,20 173,10 174,20 175,771
176,100 177,20 178,10 179,60
180,20 181,681 182,110 183,200
184,30 193,10 195,30 208,10
210,5075 211,681 212,1661 213,200
214,10
##END=
