##TITLE=Oxybenzone
##JCAMP-DX=4.24
##DATA TYPE=MASS SPECTRUM
##ORIGIN=NIST Mass Spectrometry Data Center, 1998.
##OWNER=NIST Mass Spectrometry Data Center
Collection (C) 2014 copyright by the U.S. Secretary of Commerce
on behalf of the United States of America. All rights reserved.
##CAS REGISTRY NO=131-57-7
##$NIST MASS SPEC NO=291141
##MOLFORM=C14 H12 O3
##MW=228
##$NIST SOURCE=MSDC
##XUNITS=M/Z
##YUNITS=RELATIVE INTENSITY
##XFACTOR=1
##YFACTOR=1
##FIRSTX=15
##LASTX=231
##FIRSTY=70
##MAXX=231
##MINX=15
##MAXY=9999
##MINY=10
##NPOINTS=146
##PEAK TABLE=(XY..XY)
15,70 26,20 27,60 29,40
31,10 37,20 38,80 39,250
40,10 41,190 42,20 43,30
45,10 49,20 50,400 51,1370
52,570 53,460 54,60 55,190
56,10 57,20 59,30 61,40
62,180 63,440 64,190 65,390
66,100 67,80 68,20 69,450
71,10 73,10 74,160 75,170
76,230 77,3110 78,320 79,410
80,390 81,40 82,10 83,10
84,20 85,10 86,50 87,70
88,40 89,110 90,40 91,70
92,90 93,150 94,50 95,820
96,50 97,10 98,40 99,30
100,410 101,50 102,140 103,60
104,40 105,1610 106,150 107,290
108,1080 109,80 110,20 111,20
112,10 113,70 114,100 115,270
116,30 117,10 118,10 119,30
120,60 121,50 122,300 123,80
124,10 125,10 126,80 127,260
128,550 129,190 130,20 131,10
134,30 135,20 136,60 137,30
138,40 139,290 140,60 141,70
142,20 143,10 149,20 150,390
151,9999 152,940 153,110 154,10
155,50 156,40 157,110 158,20
166,20 167,60 168,90 169,30
170,10 171,30 172,10 179,10
180,10 181,20 182,50 183,40
184,290 185,220 186,30 194,10
195,40 196,30 197,110 198,20
199,30 200,20 209,10 210,30
211,260 212,120 213,90 214,10
225,10 227,9189 228,6319 229,920
230,100 231,10
##END=
