##TITLE=9,10-Anthracenedione, 2-chloro-
##JCAMP-DX=4.24
##DATA TYPE=MASS SPECTRUM
##ORIGIN=RADIAN CORP
##OWNER=NIST Mass Spectrometry Data Center
Collection (C) 2014 copyright by the U.S. Secretary of Commerce
on behalf of the United States of America. All rights reserved.
##CAS REGISTRY NO=131-09-9
##$NIST MASS SPEC NO=73018
##MOLFORM=C14 H7 Cl O2
##MW=242
##$NIST SOURCE=MSDC
##XUNITS=M/Z
##YUNITS=RELATIVE INTENSITY
##XFACTOR=1
##YFACTOR=1
##FIRSTX=12
##LASTX=246
##FIRSTY=10
##MAXX=246
##MINX=12
##MAXY=9999
##MINY=10
##NPOINTS=102
##PEAK TABLE=(XY..XY)
12,10 16,10 27,50 29,40
35,20 37,40 38,80 39,140
40,20 49,60 50,930 51,260
52,20 53,120 55,10 61,130
62,350 63,220 67,10 72,20
73,330 74,1830 75,3740 76,640
77,620 78,50 79,10 80,200
81,70 84,150 85,170 86,380
87,340 88,50 89,240 92,30
93,1370 94,220 97,100 98,580
99,610 100,200 101,270 102,20
103,80 104,100 105,10 107,500
108,220 109,200 110,850 111,560
112,270 113,130 120,20 121,80
122,250 123,340 124,170 125,620
126,180 134,20 135,40 136,70
137,20 138,100 139,40 140,10
146,20 147,60 149,660 150,5220
151,5900 152,750 153,30 159,30
160,170 161,50 162,80 163,40
179,1130 180,160 184,60 185,610
186,6500 187,1100 188,2170 189,260
207,2590 208,400 209,10 213,410
214,7420 215,1230 216,2360 217,320
241,1260 242,9999 243,1900 244,3350
245,480 246,20
##END=
