##TITLE=Diisooctyl adipate
##JCAMP-DX=4.24
##DATA TYPE=MASS SPECTRUM
##ORIGIN=NIST Mass Spectrometry Data Center, 1994
##OWNER=NIST Mass Spectrometry Data Center
Collection (C) 2014 copyright by the U.S. Secretary of Commerce
on behalf of the United States of America. All rights reserved.
##CAS REGISTRY NO=1330-86-5
##$NIST MASS SPEC NO=133243
##MOLFORM=C22 H42 O4
##MW=370
##$NIST SOURCE=MSDC
##XUNITS=M/Z
##YUNITS=RELATIVE INTENSITY
##XFACTOR=1
##YFACTOR=1
##FIRSTX=12
##LASTX=371
##FIRSTY=12
##MAXX=371
##MINX=12
##MAXY=9999
##MINY=3
##NPOINTS=120
##PEAK TABLE=(XY..XY)
12,12 13,12 15,59 19,8
27,1071 28,181 29,2418 30,78
31,99 37,11 39,578 41,4104
42,1162 43,3880 44,144 45,97
46,5 50,9 51,26 53,237
55,4729 56,2149 57,5908 58,338
59,298 60,46 61,78 65,30
67,221 68,301 69,1115 70,3559
71,3140 72,239 73,192 74,29
77,17 78,8 79,44 81,109
82,501 83,2046 84,1349 85,182
86,8 87,611 88,27 91,5
93,8 95,36 96,25 97,140
98,46 99,5 100,616 101,1103
102,272 103,38 111,2064 112,2825
113,1295 114,135 115,19 116,6
123,5 126,41 129,9999 130,715
131,96 132,7 137,6 139,13
140,17 142,227 143,66 144,13
147,2556 148,180 149,32 151,5
153,8 154,28 155,17 157,127
158,24 160,104 161,14 168,4
169,5 172,25 173,14 183,19
185,7 186,6 198,44 199,194
200,32 201,8 212,191 213,32
214,39 215,6 223,13 241,1134
242,170 243,26 259,702 260,121
261,14 269,5 272,13 284,17
285,5 313,37 314,7 327,14
328,5 341,22 370,16 371,3
##END=
