##TITLE=Ricinoleic acid
##JCAMP-DX=4.24
##DATA TYPE=MASS SPECTRUM
##ORIGIN=Japan AIST/NIMC Database- Spectrum MS-NW-8905
##OWNER=NIST Mass Spectrometry Data Center
Collection (C) 2014 copyright by the U.S. Secretary of Commerce
on behalf of the United States of America. All rights reserved.
##CAS REGISTRY NO=141-22-0
##$NIST MASS SPEC NO=234972
##MOLFORM=C18 H34 O3
##MW=298
##$NIST SOURCE=MSDC
##XUNITS=M/Z
##YUNITS=RELATIVE INTENSITY
##XFACTOR=1
##YFACTOR=1
##FIRSTX=17
##LASTX=283
##FIRSTY=40
##MAXX=283
##MINX=17
##MAXY=9999
##MINY=10
##NPOINTS=207
##PEAK TABLE=(XY..XY)
17,40 18,139 26,20 27,329
28,109 29,959 30,50 31,159
32,20 36,10 38,10 39,369
40,70 41,2989 42,529 43,3119
44,329 45,359 46,10 51,20
52,20 53,339 54,1729 55,9999
56,1459 57,1539 58,229 59,199
60,669 61,129 65,139 66,259
67,3559 68,2969 69,4529 70,1309
71,939 72,90 73,1189 74,119
75,10 77,199 78,129 79,969
80,789 81,3449 82,4169 83,3099
84,3809 85,789 86,119 87,529
88,169 89,10 91,279 92,139
93,639 94,919 95,2509 96,3859
97,4989 98,6149 99,669 100,569
101,709 102,279 103,30 104,20
105,169 106,259 107,419 108,719
109,1399 110,1909 111,1479 112,719
113,529 114,1219 115,659 116,249
117,60 118,60 119,629 120,169
121,309 122,1529 123,1769 124,2619
125,909 126,179 127,499 128,179
129,219 130,30 131,60 132,30
133,309 134,80 135,329 136,279
137,1429 138,669 139,199 140,139
141,339 142,90 143,60 144,10
145,30 146,20 147,109 148,1649
149,449 150,259 151,389 152,189
153,119 154,119 155,279 156,50
157,50 158,10 159,60 160,10
161,40 162,20 163,90 164,139
165,179 166,3159 167,529 168,179
169,50 170,10 171,50 172,20
173,60 174,10 175,30 176,10
177,70 178,60 179,80 180,60
181,90 182,249 183,50 184,1139
185,219 186,50 187,30 189,20
191,30 192,20 193,50 194,50
195,389 196,139 197,40 198,10
199,30 200,10 201,10 203,10
205,20 206,10 207,30 208,30
209,60 210,70 211,40 212,10
213,40 214,10 215,10 219,10
220,60 221,40 222,40 223,50
224,40 225,10 227,20 234,10
235,20 236,20 237,30 238,20
239,20 241,30 245,20 246,20
249,10 251,20 252,10 255,10
256,20 262,40 263,80 264,119
265,40 278,40 279,60 280,839
281,249 282,60 283,10
##END=
