##TITLE=Oxazole, 2-methyl-4,5-diphenyl-
##JCAMP-DX=4.24
##DATA TYPE=MASS SPECTRUM
##ORIGIN=Japan AIST/NIMC Database- Spectrum MS-NW-7437
##OWNER=NIST Mass Spectrometry Data Center
Collection (C) 2014 copyright by the U.S. Secretary of Commerce
on behalf of the United States of America. All rights reserved.
##CAS REGISTRY NO=14224-99-8
##$NIST MASS SPEC NO=238592
##MOLFORM=C16 H13 N O
##MW=235
##$NIST SOURCE=MSDC
##XUNITS=M/Z
##YUNITS=RELATIVE INTENSITY
##XFACTOR=1
##YFACTOR=1
##FIRSTX=15
##LASTX=238
##FIRSTY=90
##MAXX=238
##MINX=15
##MAXY=9999
##MINY=10
##NPOINTS=129
##PEAK TABLE=(XY..XY)
15,90 26,50 27,349 28,80
37,30 38,99 39,759 40,40
41,30 42,90 43,409 44,10
49,10 50,469 51,1649 52,179
53,30 61,70 62,349 63,1089
64,129 65,60 66,10 69,139
70,30 73,10 74,169 75,209
76,329 77,3109 78,559 79,40
81,109 82,269 83,189 85,20
86,99 87,159 88,179 89,839
90,119 91,30 95,20 96,10
97,50 98,40 99,30 100,20
101,40 102,139 103,759 104,3609
105,2119 106,189 107,30 108,30
109,10 110,30 111,20 112,10
113,90 114,60 115,309 116,40
117,329 118,60 122,10 125,10
126,70 127,20 128,149 129,119
130,219 131,60 132,169 133,10
137,40 138,50 139,449 140,70
145,10 148,10 150,20 151,20
152,30 156,10 157,40 158,109
159,10 161,10 162,30 163,499
164,749 165,8409 166,3339 167,409
168,30 176,20 177,20 178,30
179,20 180,20 181,10 182,10
183,10 189,10 190,70 191,30
192,119 193,159 194,80 195,10
204,30 205,60 206,2309 207,3399
208,569 209,40 218,10 219,10
220,40 221,10 232,20 233,70
234,549 235,9999 236,1769 237,169
238,10
##END=
