##TITLE=Tetradecanoic acid, propyl ester
##JCAMP-DX=4.24
##DATA TYPE=MASS SPECTRUM
##ORIGIN=V.G. Zaikin, R.S.Borisov, TIPS RAS, Moscow, Russia
##OWNER=NIST Mass Spectrometry Data Center
Collection (C) 2014 copyright by the U.S. Secretary of Commerce
on behalf of the United States of America. All rights reserved.
##CAS REGISTRY NO=14303-70-9
##$NIST MASS SPEC NO=405143
##MOLFORM=C17 H34 O2
##MW=270
##$NIST SOURCE=MSDC
##XUNITS=M/Z
##YUNITS=RELATIVE INTENSITY
##XFACTOR=1
##YFACTOR=1
##FIRSTX=15
##LASTX=271
##FIRSTY=30
##MAXX=271
##MINX=15
##MAXY=9999
##MINY=10
##NPOINTS=152
##PEAK TABLE=(XY..XY)
15,30 26,50 27,1031 28,601
29,1511 30,60 31,230 38,40
39,490 40,160 41,4064 42,1762
43,6716 44,260 45,150 51,10
52,10 53,180 54,290 55,3143
56,821 57,3123 58,280 59,430
60,4094 61,9999 62,240 63,40
65,40 66,30 67,500 68,330
69,1952 70,520 71,1712 72,170
73,4594 74,430 75,130 77,30
78,10 79,160 80,50 81,480
82,240 83,1491 84,761 85,971
86,110 87,1111 88,80 89,100
91,20 93,120 94,50 95,490
96,200 97,1121 98,691 99,220
100,60 101,430 102,3683 103,1231
104,70 105,10 107,90 108,20
109,250 110,110 111,550 112,170
113,100 114,40 115,3023 116,280
117,70 119,10 121,110 122,10
123,110 124,60 125,250 126,50
127,50 128,10 129,1361 130,130
131,30 133,10 135,100 136,10
137,60 138,30 139,100 140,20
141,10 143,330 144,70 145,20
147,20 148,10 149,70 150,10
151,20 152,10 153,60 154,10
155,10 157,300 158,60 159,10
163,20 164,20 166,60 167,40
168,10 169,10 171,931 172,120
173,20 177,10 181,10 184,10
185,781 186,90 187,20 190,10
191,70 192,20 193,10 195,10
199,190 200,30 207,50 208,80
209,90 210,30 211,2282 212,310
213,130 214,20 223,10 226,10
227,380 228,390 229,2132 230,300
231,30 241,50 270,410 271,70
##END=
