##TITLE=Diethyl octylmalonate
##JCAMP-DX=4.24
##DATA TYPE=MASS SPECTRUM
##ORIGIN=Chemical Concepts
##OWNER=NIST Mass Spectrometry Data Center
Collection (C) 2014 copyright by the U.S. Secretary of Commerce
on behalf of the United States of America. All rights reserved.
##CAS REGISTRY NO=1472-85-1
##$NIST MASS SPEC NO=192800
##MOLFORM=C15 H28 O4
##MW=272
##$NIST SOURCE=MSDC
##XUNITS=M/Z
##YUNITS=RELATIVE INTENSITY
##XFACTOR=1
##YFACTOR=1
##FIRSTX=26
##LASTX=273
##FIRSTY=83
##MAXX=273
##MINX=26
##MAXY=9999
##MINY=14
##NPOINTS=157
##PEAK TABLE=(XY..XY)
26,83 27,1394 28,257 29,4347
30,128 31,186 38,25 39,545
40,132 41,2590 42,662 43,2804
44,141 45,607 46,24 47,73
51,31 52,23 53,230 54,326
55,2798 56,525 57,1586 58,211
59,110 60,190 61,137 65,37
66,42 67,395 68,347 69,1471
70,432 71,1071 72,70 73,1696
74,102 75,31 77,32 79,122
80,56 81,497 82,277 83,597
84,287 85,230 86,708 87,376
88,1410 89,118 90,19 91,51
93,106 94,47 95,322 96,240
97,434 98,370 99,373 100,103
101,1372 102,119 103,23 104,424
105,350 106,24 107,75 108,62
109,283 110,566 111,407 112,103
113,182 114,1194 115,660 116,79
117,81 118,24 119,41 120,22
121,42 122,26 123,314 124,281
125,156 126,32 127,989 128,279
129,233 130,50 131,89 132,1692
133,2314 134,170 135,557 136,73
137,149 138,182 139,50 140,21
141,142 142,96 143,80 144,22
145,274 146,48 147,24 149,54
151,151 152,145 153,425 154,57
155,62 156,419 157,190 158,31
159,52 160,9999 161,1130 162,154
163,75 164,19 165,45 169,76
170,517 171,276 172,43 173,4284
174,535 175,76 179,99 180,103
181,182 182,27 183,52 184,128
185,32 187,148 188,42 197,40
198,57 199,277 200,166 201,52
202,14 213,16 215,17 225,19
226,39 227,2353 228,353 229,46
240,17 241,32 245,47 272,61
273,27
##END=
