##TITLE=3-Buten-2-one, 4-(2,6,6-trimethyl-1-cyclohexen-1-yl)-
##JCAMP-DX=4.24
##DATA TYPE=MASS SPECTRUM
##ORIGIN=NIST Mass Spectrometry Data Center, 1998.
##OWNER=NIST Mass Spectrometry Data Center
Collection (C) 2014 copyright by the U.S. Secretary of Commerce
on behalf of the United States of America. All rights reserved.
##CAS REGISTRY NO=14901-07-6
##$NIST MASS SPEC NO=291528
##MOLFORM=C13 H20 O
##MW=192
##$NIST SOURCE=MSDC
##XUNITS=M/Z
##YUNITS=RELATIVE INTENSITY
##XFACTOR=1
##YFACTOR=1
##FIRSTX=15
##LASTX=193
##FIRSTY=50
##MAXX=193
##MINX=15
##MAXY=9999
##MINY=10
##NPOINTS=122
##PEAK TABLE=(XY..XY)
15,50 26,10 27,230 29,250
30,10 38,30 39,680 40,100
41,1190 42,110 43,4080 44,100
45,60 50,80 51,360 52,170
53,570 54,60 55,710 56,50
57,100 58,50 59,10 61,10
62,40 63,200 64,80 65,550
66,130 67,370 68,40 69,440
70,30 71,220 72,30 73,10
74,20 75,30 76,30 77,1180
78,280 79,960 80,130 81,500
82,60 83,70 84,10 85,40
86,10 87,10 89,70 90,20
91,1730 92,260 93,1220 94,170
95,860 96,130 97,80 98,10
99,10 101,10 102,40 103,240
104,90 105,1050 106,180 107,1040
108,200 109,660 110,160 111,30
112,10 115,320 116,110 117,350
118,90 119,780 120,120 121,1030
122,800 123,420 124,40 127,30
128,90 129,110 130,40 131,320
132,50 133,850 134,160 135,1530
136,450 137,50 141,20 142,20
143,30 144,150 145,60 146,20
147,170 148,50 149,800 150,100
151,20 157,30 158,10 159,560
160,80 161,130 162,400 163,120
164,20 174,10 175,20 177,9999
178,1340 179,100 180,10 191,50
192,440 193,70
##END=
