##TITLE=9H-Fluorene-9-carbonitrile
##JCAMP-DX=4.24
##DATA TYPE=MASS SPECTRUM
##ORIGIN=Chemical Concepts
##OWNER=NIST Mass Spectrometry Data Center
Collection (C) 2014 copyright by the U.S. Secretary of Commerce
on behalf of the United States of America. All rights reserved.
##CAS REGISTRY NO=1529-40-4
##$NIST MASS SPEC NO=211010
##MOLFORM=C14 H9 N
##MW=191
##$NIST SOURCE=MSDC
##XUNITS=M/Z
##YUNITS=RELATIVE INTENSITY
##XFACTOR=1
##YFACTOR=1
##FIRSTX=26
##LASTX=194
##FIRSTY=34
##MAXX=194
##MINX=26
##MAXY=9999
##MINY=5
##NPOINTS=146
##PEAK TABLE=(XY..XY)
26,34 27,87 29,24 30,7
31,68 36,6 37,20 38,55
39,285 40,26 41,60 42,11
43,69 44,23 45,35 46,14
48,6 49,6 50,168 51,197
52,43 53,14 54,5 55,65
56,31 57,66 58,8 59,6
61,53 62,213 63,444 64,79
65,67 66,8 67,35 68,74
69,122 70,63 71,36 73,23
74,214 75,191 76,91 77,65
78,16 79,21 80,59 81,484
82,766 83,69 84,10 85,51
86,180 87,280 88,157 89,129
90,21 91,97 92,40 93,14
94,32 95,363 96,174 97,31
98,100 99,85 100,49 101,22
102,24 103,11 104,9 105,28
106,36 107,13 108,7 109,30
110,70 111,110 112,69 113,160
114,88 115,119 116,21 117,8
119,5 120,6 121,15 122,26
123,33 124,32 125,22 126,40
127,20 128,17 129,24 130,11
131,11 132,6 133,7 134,17
135,29 136,33 137,170 138,128
139,205 140,198 141,52 142,12
143,10 144,10 145,7 146,8
147,7 148,6 149,22 150,37
151,31 152,12 153,6 155,6
156,6 157,5 159,5 160,19
161,159 162,300 163,1237 164,1247
165,769 166,97 167,14 172,7
173,16 174,6 175,13 176,12
177,5 186,17 187,69 188,546
189,636 190,5696 191,9999 192,1507
193,103 194,7
##END=
