##TITLE=Benzenemethanol, 2-(phenylmethyl)-
##JCAMP-DX=4.24
##DATA TYPE=MASS SPECTRUM
##ORIGIN=Japan AIST/NIMC Database- Spectrum MS-NW-7287
##OWNER=NIST Mass Spectrometry Data Center
Collection (C) 2014 copyright by the U.S. Secretary of Commerce
on behalf of the United States of America. All rights reserved.
##CAS REGISTRY NO=1586-00-1
##$NIST MASS SPEC NO=237861
##MOLFORM=C14 H14 O
##MW=198
##$NIST SOURCE=MSDC
##XUNITS=M/Z
##YUNITS=RELATIVE INTENSITY
##XFACTOR=1
##YFACTOR=1
##FIRSTX=18
##LASTX=197
##FIRSTY=10
##MAXX=197
##MINX=18
##MAXY=9999
##MINY=10
##NPOINTS=136
##PEAK TABLE=(XY..XY)
18,10 26,10 27,139 28,60
29,70 31,70 32,20 37,10
38,60 39,509 40,60 41,149
42,10 43,20 44,30 50,209
51,569 52,129 53,99 54,10
55,60 56,10 57,40 58,10
61,30 62,119 63,449 64,149
65,829 66,70 67,20 68,10
69,80 70,40 71,20 72,10
74,119 75,159 76,529 77,799
78,219 79,519 80,50 81,70
82,389 83,139 84,30 85,30
86,70 87,99 88,199 89,1489
90,569 91,1889 92,239 93,40
94,10 95,10 97,60 98,90
99,30 100,10 101,50 102,119
103,109 104,189 105,109 106,10
107,90 108,20 110,20 111,10
112,10 113,60 114,30 115,359
116,50 117,20 118,80 119,839
120,349 121,50 122,10 123,10
125,10 126,80 127,119 128,219
129,60 130,10 131,20 134,10
135,10 137,20 138,30 139,219
140,40 141,119 142,20 143,10
144,20 149,10 150,60 151,189
152,659 153,199 154,70 155,20
157,20 158,10 161,10 162,30
163,159 164,189 165,3199 166,659
167,359 168,60 169,20 170,10
171,10 174,20 175,30 176,199
177,269 178,2509 179,9509 180,9999
181,1479 182,149 183,30 193,10
194,60 195,199 196,159 197,30
##END=
