##TITLE=9-Tetradecen-1-ol, acetate, (Z)-
##JCAMP-DX=4.24
##DATA TYPE=MASS SPECTRUM
##ORIGIN=NIST Mass Spectrometry Data Center, 1998.
##OWNER=NIST Mass Spectrometry Data Center
Collection (C) 2014 copyright by the U.S. Secretary of Commerce
on behalf of the United States of America. All rights reserved.
##CAS REGISTRY NO=16725-53-4
##$NIST MASS SPEC NO=291656
##MOLFORM=C16 H30 O2
##MW=254
##$NIST SOURCE=MSDC
##XUNITS=M/Z
##YUNITS=RELATIVE INTENSITY
##XFACTOR=1
##YFACTOR=1
##FIRSTX=14
##LASTX=211
##FIRSTY=10
##MAXX=211
##MINX=14
##MAXY=9999
##MINY=10
##NPOINTS=109
##PEAK TABLE=(XY..XY)
14,10 15,90 26,30 27,570
28,120 29,880 30,30 31,60
37,10 38,20 39,1070 40,210
41,5169 42,1080 43,8879 44,270
45,70 50,20 51,90 52,80
53,920 54,4700 55,9999 56,1600
57,820 58,70 59,20 60,20
61,1040 62,30 63,20 64,10
65,320 66,640 67,7879 68,4390
69,3980 70,720 71,300 72,40
73,350 74,10 77,270 78,70
79,920 80,580 81,8899 82,9299
83,2460 84,290 85,110 86,30
87,30 91,140 92,20 93,270
94,250 95,5849 96,7239 97,1510
98,170 99,30 100,20 101,20
103,10 105,20 106,10 107,90
108,110 109,2920 110,3200 111,530
112,130 113,30 114,30 115,20
116,10 121,60 122,100 123,1350
124,1410 125,200 126,50 127,20
128,30 129,10 135,30 136,60
137,790 138,820 139,110 140,10
141,10 142,30 149,10 150,10
151,280 152,240 153,40 156,10
165,130 166,320 167,50 169,10
179,20 194,1710 195,260 196,20
211,20
##END=
