##TITLE=3-Bromo-2-hydroxy-5-nitrobenzaldehyde
##JCAMP-DX=4.24
##DATA TYPE=MASS SPECTRUM
##ORIGIN=NIST Mass Spectrometry Data Center, 1994
##OWNER=NIST Mass Spectrometry Data Center
Collection (C) 2014 copyright by the U.S. Secretary of Commerce
on behalf of the United States of America. All rights reserved.
##CAS REGISTRY NO=16789-84-7
##$NIST MASS SPEC NO=136122
##MOLFORM=C7 H4 Br N O4
##MW=245
##$NIST SOURCE=MSDC
##XUNITS=M/Z
##YUNITS=RELATIVE INTENSITY
##XFACTOR=1
##YFACTOR=1
##FIRSTX=12
##LASTX=250
##FIRSTY=60
##MAXX=250
##MINX=12
##MAXY=9999
##MINY=4
##NPOINTS=100
##PEAK TABLE=(XY..XY)
12,60 16,12 17,4 25,109
26,71 29,828 30,1667 36,131
37,804 38,785 39,424 40,64
41,67 42,196 46,363 49,278
50,719 51,798 52,340 53,1631
54,119 55,418 60,236 61,1604
62,2760 63,4812 64,1503 65,148
66,294 67,99 69,103 73,314
74,816 75,298 76,104 77,171
78,98 79,515 80,153 81,138
89,108 90,389 91,1945 92,1644
93,159 94,43 105,69 106,68
107,174 108,107 116,96 117,572
118,104 119,883 120,244 130,53
131,308 133,258 137,94 141,116
143,1736 144,178 145,1596 146,120
153,345 154,60 155,357 159,306
161,300 165,148 169,69 170,333
171,577 172,352 173,603 181,282
183,283 185,59 187,932 188,111
189,778 198,619 199,545 200,721
201,515 215,1393 216,183 217,1463
218,108 227,475 229,791 230,70
231,194 244,2210 245,8900 246,3027
247,9999 248,852 249,213 250,99
##END=
