##TITLE=1,4-Benzenedicarboxylic acid, 2-chloro-, dimethyl ester
##JCAMP-DX=4.24
##DATA TYPE=MASS SPECTRUM
##ORIGIN=NIST Mass Spectrometry Data Center, 1994
##OWNER=NIST Mass Spectrometry Data Center
Collection (C) 2014 copyright by the U.S. Secretary of Commerce
on behalf of the United States of America. All rights reserved.
##CAS REGISTRY NO=18643-84-0
##$NIST MASS SPEC NO=135052
##MOLFORM=C10 H9 Cl O4
##MW=228
##$NIST SOURCE=MSDC
##XUNITS=M/Z
##YUNITS=RELATIVE INTENSITY
##XFACTOR=1
##YFACTOR=1
##FIRSTX=13
##LASTX=231
##FIRSTY=21
##MAXX=231
##MINX=13
##MAXY=9999
##MINY=14
##NPOINTS=110
##PEAK TABLE=(XY..XY)
13,21 14,124 15,1407 16,25
18,31 27,24 28,174 29,526
30,165 31,140 32,23 35,15
36,26 37,128 38,102 39,115
45,29 49,95 50,342 51,151
52,27 53,147 54,14 55,80
56,26 59,400 60,27 61,61
62,121 63,311 64,32 65,20
66,15 69,223 70,79 72,44
73,288 74,1322 75,2002 76,249
77,412 78,76 83,280 84,354
85,45 86,100 87,46 89,65
90,25 91,92 92,27 97,33
98,92 99,64 100,26 101,61
103,234 104,134 105,55 108,54
109,402 110,947 111,315 112,309
113,93 119,363 120,50 125,43
126,243 127,32 128,81 133,16
134,19 135,30 137,1050 138,592
139,416 140,207 141,109 143,27
147,19 153,465 154,1094 155,225
156,346 157,51 162,57 163,18
166,30 167,27 169,1064 170,114
171,348 172,38 183,37 185,15
193,71 194,18 197,9999 198,1073
199,3395 200,315 201,36 213,211
214,23 215,81 228,2355 229,306
230,777 231,81
##END=
