##TITLE=Atrazine
##JCAMP-DX=4.24
##DATA TYPE=MASS SPECTRUM
##ORIGIN=Chemical Concepts
##OWNER=NIST Mass Spectrometry Data Center
Collection (C) 2014 copyright by the U.S. Secretary of Commerce
on behalf of the United States of America. All rights reserved.
##CAS REGISTRY NO=1912-24-9
##$NIST MASS SPEC NO=185403
##MOLFORM=C8 H14 Cl N5
##MW=215
##$NIST SOURCE=MSDC
##XUNITS=M/Z
##YUNITS=RELATIVE INTENSITY
##XFACTOR=1
##YFACTOR=1
##FIRSTX=27
##LASTX=218
##FIRSTY=741
##MAXX=218
##MINX=27
##MAXY=9999
##MINY=52
##NPOINTS=111
##PEAK TABLE=(XY..XY)
27,741 28,197 29,676 30,232
39,261 40,107 41,877 42,924
43,2185 44,1754 53,222 54,123
55,475 56,165 57,319 58,3781
59,180 62,392 64,129 67,218
68,1946 69,1569 70,242 71,1623
72,88 76,68 78,74 79,199
80,86 81,134 82,92 83,290
84,65 85,115 87,347 88,81
89,118 90,131 91,486 92,68
93,607 94,560 95,239 96,836
97,213 100,255 101,99 104,953
105,681 106,300 107,217 108,92
109,86 110,425 111,83 116,64
117,120 119,78 121,115 122,1110
123,358 129,271 130,598 131,287
132,1358 133,136 134,411 135,64
136,226 137,216 138,1299 139,116
143,111 145,857 146,110 147,255
152,185 154,73 156,215 158,1231
159,229 160,488 161,67 164,191
165,59 170,58 171,73 172,1484
173,3531 174,786 175,1075 176,109
178,52 179,60 180,200 184,126
186,221 187,462 188,102 189,153
198,196 199,72 200,9999 201,1142
202,3362 203,381 214,713 215,6157
216,1100 217,2131 218,269
##END=
