##TITLE=3-Ethylphenyl isothiocyanate
##JCAMP-DX=4.24
##DATA TYPE=MASS SPECTRUM
##ORIGIN=NIST Mass Spectrometry Data Center, 1994
##OWNER=NIST Mass Spectrometry Data Center
Collection (C) 2014 copyright by the U.S. Secretary of Commerce
on behalf of the United States of America. All rights reserved.
##CAS REGISTRY NO=19241-20-4
##$NIST MASS SPEC NO=134569
##MOLFORM=C9 H9 N S
##MW=163
##$NIST SOURCE=MSDC
##XUNITS=M/Z
##YUNITS=RELATIVE INTENSITY
##XFACTOR=1
##YFACTOR=1
##FIRSTX=14
##LASTX=166
##FIRSTY=32
##MAXX=166
##MINX=14
##MAXY=9999
##MINY=30
##NPOINTS=101
##PEAK TABLE=(XY..XY)
14,32 15,360 26,312 27,1641
28,120 29,200 32,213 37,282
38,626 39,2290 40,205 41,191
44,349 45,1387 46,56 47,67
49,152 50,1614 51,2539 52,567
53,402 54,55 56,45 57,83
58,191 59,168 60,45 61,301
62,731 63,1978 64,806 65,543
66,136 67,122 69,221 70,507
71,118 72,137 73,45 74,751
75,806 76,801 77,3485 78,1104
79,694 80,173 81,169 82,399
83,195 84,136 85,58 86,122
87,150 88,58 89,1663 90,972
91,279 92,40 93,58 94,49
95,103 96,140 97,34 98,52
99,46 101,140 102,415 103,865
104,1597 105,2923 106,263 107,105
108,148 109,112 114,39 116,527
117,135 118,84 121,1237 122,322
123,86 128,659 129,140 130,333
131,122 133,58 134,101 135,769
136,264 137,64 146,76 148,9999
149,977 150,477 151,46 160,38
161,30 163,9294 164,1057 165,449
166,43
##END=
