##TITLE=Diphenyl-1,2,5-oxadiazole
##JCAMP-DX=4.24
##DATA TYPE=MASS SPECTRUM
##ORIGIN=A.A.Kutin, Moscow, Russia
##OWNER=NIST Mass Spectrometry Data Center
Collection (C) 2014 copyright by the U.S. Secretary of Commerce
on behalf of the United States of America. All rights reserved.
##CAS REGISTRY NO=19768-02-6
##$NIST MASS SPEC NO=257941
##MOLFORM=C14 H10 N2 O
##MW=222
##$NIST SOURCE=MSDC
##XUNITS=M/Z
##YUNITS=RELATIVE INTENSITY
##XFACTOR=1
##YFACTOR=1
##FIRSTX=33
##LASTX=224
##FIRSTY=49
##MAXX=224
##MINX=33
##MAXY=9999
##MINY=2
##NPOINTS=96
##PEAK TABLE=(XY..XY)
33,49 34,22 36,55 37,436
38,1318 39,3583 40,903 41,646
42,55 43,93 44,257 50,3167
51,3851 52,805 53,70 55,25
57,10 61,664 62,2158 63,5184
64,3315 65,662 66,24 69,29
70,15 72,3 73,138 74,647
75,1051 76,2122 77,1664 78,115
81,85 82,184 84,131 85,116
86,312 87,615 88,2232 89,9999
90,1368 91,3232 92,221 96,194
98,52 99,62 100,46 101,72
102,541 103,1836 104,190 105,89
111,131 112,20 113,86 114,245
115,289 116,30 119,8523 120,551
121,20 125,7 126,67 127,15
128,2 137,14 138,26 139,78
140,36 149,3 150,75 151,142
152,136 153,5 163,253 164,196
165,369 166,50 175,54 176,296
177,536 178,1815 179,235 188,36
189,139 190,531 191,1400 192,6606
193,996 194,87 203,23 204,28
205,34 222,8297 223,991 224,69
##END=
