##TITLE=Loxapine
##JCAMP-DX=4.24
##DATA TYPE=MASS SPECTRUM
##ORIGIN=AAFS Toxicology Section MS DB Committee, U. Alberta, Canada
##OWNER=NIST Mass Spectrometry Data Center
Collection (C) 2014 copyright by the U.S. Secretary of Commerce
on behalf of the United States of America. All rights reserved.
##CAS REGISTRY NO=1977-10-2
##$NIST MASS SPEC NO=246942
##MOLFORM=C18 H18 Cl N3 O
##MW=327
##$NIST SOURCE=MSDC
##XUNITS=M/Z
##YUNITS=RELATIVE INTENSITY
##XFACTOR=1
##YFACTOR=1
##FIRSTX=40
##LASTX=330
##FIRSTY=90
##MAXX=330
##MINX=40
##MAXY=9999
##MINY=70
##NPOINTS=147
##PEAK TABLE=(XY..XY)
40,90 41,120 42,2071 43,1070
44,320 50,160 51,180 52,120
54,250 55,230 56,1391 57,280
58,280 62,130 63,550 64,360
65,150 68,120 70,6836 71,870
72,130 73,150 74,290 75,590
76,350 77,240 78,140 81,80
82,1030 83,7216 84,560 85,120
86,110 87,230 88,240 89,200
90,140 91,90 92,380 93,90
97,320 98,570 99,880 100,360
101,100 102,230 103,80 104,80
110,110 111,170 112,100 113,220
114,270 115,130 116,80 123,100
124,210 125,180 126,350 127,180
128,130 130,90 136,90 137,450
138,1030 139,1141 140,550 141,90
146,140 149,140 150,200 151,200
152,230 153,150 154,80 162,70
163,170 164,2842 165,830 166,500
167,180 173,370 174,520 176,190
177,120 178,100 179,190 180,140
181,80 191,110 192,380 193,6135
194,1451 195,250 200,300 201,410
203,140 204,130 205,200 206,170
207,230 208,140 214,170 215,200
216,210 217,110 218,90 219,80
220,120 221,460 222,680 223,160
227,340 228,3162 229,1281 231,350
232,90 234,90 235,330 236,70
241,150 242,100 243,140 244,860
245,1080 246,410 247,430 248,80
249,200 255,220 257,9999 258,1611
259,3032 260,460 269,1721 270,890
271,1111 272,330 273,220 283,490
284,120 285,200 326,80 327,1161
328,240 329,370 330,90
##END=
