##TITLE=Benzene, 1,4-dichloro-2-methoxy-
##JCAMP-DX=4.24
##DATA TYPE=MASS SPECTRUM
##ORIGIN=NIST Mass Spectrometry Data Center
##OWNER=NIST Mass Spectrometry Data Center
Collection (C) 2014 copyright by the U.S. Secretary of Commerce
on behalf of the United States of America. All rights reserved.
##CAS REGISTRY NO=1984-58-3
##$NIST MASS SPEC NO=342417
##MOLFORM=C7 H6 Cl2 O
##MW=176
##$NIST SOURCE=MSDC
##XUNITS=M/Z
##YUNITS=RELATIVE INTENSITY
##XFACTOR=1
##YFACTOR=1
##FIRSTX=12
##LASTX=181
##FIRSTY=80
##MAXX=181
##MINX=12
##MAXY=9999
##MINY=30
##NPOINTS=99
##PEAK TABLE=(XY..XY)
12,80 13,140 14,270 15,2602
16,30 17,30 18,80 23,30
25,100 26,120 27,170 28,490
29,871 30,230 31,120 32,120
35,250 36,160 37,1031 38,781
39,220 41,50 43,80 44,30
45,40 47,310 48,200 49,641
50,1011 51,450 52,60 53,410
55,110 56,70 58,30 60,410
61,1141 62,1892 63,3453 64,260
65,60 66,110 71,70 72,500
73,2252 74,1922 75,2192 76,250
77,871 78,110 83,641 84,390
85,621 86,190 87,210 88,70
89,90 90,40 91,60 96,140
97,781 98,641 99,330 100,160
107,380 108,130 109,921 110,290
111,1161 112,290 113,891 114,110
115,180 126,410 127,70 128,130
133,7727 135,4714 136,330 137,731
138,40 141,470 142,50 143,180
145,350 146,651 147,390 148,400
149,100 161,2542 163,1651 164,140
165,250 176,9999 177,1151 178,6526
179,561 180,1031 181,100
##END=
