##TITLE=Naphthalene, 1,2,3,4-tetrachloro-
##JCAMP-DX=4.24
##DATA TYPE=MASS SPECTRUM
##ORIGIN=NIST Mass Spectrometry Data Center, 1998.
##OWNER=NIST Mass Spectrometry Data Center
Collection (C) 2014 copyright by the U.S. Secretary of Commerce
on behalf of the United States of America. All rights reserved.
##CAS REGISTRY NO=20020-02-4
##$NIST MASS SPEC NO=290701
##MOLFORM=C10 H4 Cl4
##MW=264
##$NIST SOURCE=MSDC
##XUNITS=M/Z
##YUNITS=RELATIVE INTENSITY
##XFACTOR=1
##YFACTOR=1
##FIRSTX=26
##LASTX=273
##FIRSTY=20
##MAXX=273
##MINX=26
##MAXY=9999
##MINY=10
##NPOINTS=155
##PEAK TABLE=(XY..XY)
26,20 27,10 35,60 36,20
37,100 38,60 39,60 47,70
48,20 49,140 50,200 51,140
52,10 55,10 59,10 60,90
61,650 62,330 63,80 64,10
66,60 71,40 72,90 73,290
74,600 75,310 76,30 77,10
78,10 79,390 82,10 83,40
84,390 85,560 86,360 87,110
88,20 89,10 94,20 95,50
96,310 97,1630 98,1610 99,420
100,20 101,20 102,50 103,40
104,10 106,40 107,80 108,530
109,450 110,290 111,170 112,20
113,10 114,390 115,400 118,70
119,260 120,620 121,470 122,910
123,1270 124,660 125,60 130,20
131,80 132,1150 133,1330 134,650
135,220 136,20 141,20 142,60
143,70 144,110 145,110 146,40
147,70 148,10 149,10 153,10
154,20 155,60 156,70 157,270
158,580 159,1330 160,310 161,410
162,40 165,10 166,10 167,60
168,50 169,50 170,40 171,10
172,20 177,10 178,10 179,20
180,10 181,20 182,30 183,10
184,20 191,10 192,70 193,220
194,4060 195,570 196,2590 197,300
198,430 199,40 202,10 203,20
204,40 205,20 206,30 207,10
208,10 216,10 217,80 218,10
219,70 220,10 221,20 227,10
228,390 229,1410 230,530 231,1350
232,270 233,430 234,60 235,40
236,10 238,20 240,30 242,10
262,10 264,8029 265,950 266,9999
267,1140 268,4850 269,530 270,1050
271,110 272,80 273,10
##END=
