##TITLE=N,N-Dimethylformamide dibenzylacetal
##JCAMP-DX=4.24
##DATA TYPE=MASS SPECTRUM
##ORIGIN=Leung Pu, NIH, Bethesda, Maryland, U.S.
##OWNER=NIST Mass Spectrometry Data Center
Collection (C) 2014 copyright by the U.S. Secretary of Commerce
on behalf of the United States of America. All rights reserved.
##CAS REGISTRY NO=2016-04-8
##$NIST MASS SPEC NO=214035
##MOLFORM=C17 H21 N O2
##MW=271
##$NIST SOURCE=MSDC
##XUNITS=M/Z
##YUNITS=RELATIVE INTENSITY
##XFACTOR=1
##YFACTOR=1
##FIRSTX=42
##LASTX=272
##FIRSTY=1234
##MAXX=272
##MINX=42
##MAXY=9999
##MINY=5
##NPOINTS=125
##PEAK TABLE=(XY..XY)
42,1234 43,278 44,1447 45,148
46,76 48,7 49,90 50,714
51,1546 52,409 53,332 54,33
55,82 56,101 57,110 58,986
59,37 60,19 61,87 62,226
63,598 64,152 65,1409 66,90
67,18 68,21 69,33 70,35
72,464 73,565 74,238 75,95
77,2402 78,462 79,2505 80,221
81,33 82,15 83,23 84,41
85,42 86,51 87,28 89,642
90,753 91,9999 92,1352 93,71
95,5 97,20 98,19 99,15
101,312 102,33 103,17 105,376
107,1586 108,1661 109,110 110,5
111,12 114,14 115,15 116,23
117,13 118,27 119,30 120,23
121,71 122,35 125,18 126,81
127,6 128,37 129,68 130,16
131,34 132,76 133,48 134,445
135,291 136,397 137,42 139,12
141,5 144,21 146,13 148,16
149,12 150,16 151,74 152,23
153,10 155,11 158,5 162,12
164,997 165,125 166,19 167,40
168,10 170,101 171,11 172,9
174,53 175,10 178,26 179,28
180,208 181,1066 182,151 183,15
194,15 195,12 196,21 197,72
198,21 212,35 213,20 218,38
226,63 227,304 228,48 271,87
272,17
##END=
