##TITLE=Benzenamine, N-methyl-2,4-dinitro-
##JCAMP-DX=4.24
##DATA TYPE=MASS SPECTRUM
##ORIGIN=Japan AIST/NIMC Database- Spectrum MS-IW-6772
##OWNER=NIST Mass Spectrometry Data Center
Collection (C) 2014 copyright by the U.S. Secretary of Commerce
on behalf of the United States of America. All rights reserved.
##CAS REGISTRY NO=2044-88-4
##$NIST MASS SPEC NO=242089
##MOLFORM=C7 H7 N3 O4
##MW=197
##$NIST SOURCE=MSDC
##XUNITS=M/Z
##YUNITS=RELATIVE INTENSITY
##XFACTOR=1
##YFACTOR=1
##FIRSTX=12
##LASTX=199
##FIRSTY=50
##MAXX=199
##MINX=12
##MAXY=9999
##MINY=10
##NPOINTS=151
##PEAK TABLE=(XY..XY)
12,50 13,20 14,50 15,209
16,50 17,359 18,1669 24,20
25,60 26,679 27,2879 28,4349
29,229 30,1739 31,50 32,20
33,10 34,30 36,30 37,259
38,529 39,879 40,219 41,319
42,349 43,189 44,1189 45,30
46,80 47,10 48,40 49,109
50,1319 51,1999 52,1339 53,539
54,349 55,269 56,50 57,30
58,99 59,10 60,30 61,299
62,809 63,2159 64,909 65,889
66,1779 67,619 68,129 69,30
70,10 71,10 72,80 73,109
74,759 75,1249 76,3129 77,2489
78,5279 79,1509 80,689 81,149
82,50 83,20 84,10 85,10
86,20 87,80 88,249 89,219
90,1219 91,679 92,1359 93,1629
94,599 95,90 96,20 97,20
99,20 100,30 101,30 102,329
103,889 104,5139 105,9949 106,1479
107,259 108,119 109,109 110,40
111,10 115,10 116,139 117,839
118,1299 119,529 120,689 121,1019
122,319 123,60 124,10 128,10
129,30 130,20 131,70 132,129
133,1589 134,1239 135,289 136,199
137,229 138,99 139,10 143,50
144,20 145,30 146,20 147,259
148,129 149,649 150,1439 151,319
152,369 153,80 154,10 155,20
156,10 159,10 163,1149 164,369
165,109 166,109 167,359 168,139
169,10 171,20 177,40 178,20
179,319 180,769 181,959 182,99
183,30 194,119 195,20 196,139
197,9999 198,989 199,129
##END=
