##TITLE=Benzaldehyde, 2,3,4-trimethoxy-
##JCAMP-DX=4.24
##DATA TYPE=MASS SPECTRUM
##ORIGIN=Japan AIST/NIMC Database- Spectrum MS-NW-8748
##OWNER=NIST Mass Spectrometry Data Center
Collection (C) 2014 copyright by the U.S. Secretary of Commerce
on behalf of the United States of America. All rights reserved.
##CAS REGISTRY NO=2103-57-3
##$NIST MASS SPEC NO=236624
##MOLFORM=C10 H12 O4
##MW=196
##$NIST SOURCE=MSDC
##XUNITS=M/Z
##YUNITS=RELATIVE INTENSITY
##XFACTOR=1
##YFACTOR=1
##FIRSTX=14
##LASTX=198
##FIRSTY=30
##MAXX=198
##MINX=14
##MAXY=9999
##MINY=10
##NPOINTS=136
##PEAK TABLE=(XY..XY)
14,30 15,389 16,10 17,80
18,459 26,50 27,159 28,529
29,249 30,30 31,60 32,50
33,10 36,20 37,119 38,459
39,1439 40,70 41,329 42,30
43,269 44,60 45,159 49,80
50,499 51,849 52,309 53,799
54,179 55,279 56,20 57,30
59,149 60,10 61,90 62,179
63,319 64,189 65,1359 66,539
67,649 68,80 69,309 70,10
71,10 73,10 74,90 75,179
76,439 77,1069 78,579 79,809
80,289 81,399 82,699 83,80
84,10 85,10 89,30 90,229
91,279 92,399 93,1029 94,489
95,1549 96,169 97,339 98,30
99,10 102,10 103,30 104,339
105,549 106,629 107,1009 108,529
109,549 110,1039 111,90 112,10
117,20 118,199 119,399 120,1269
121,589 122,409 123,1449 124,219
125,599 126,50 127,10 131,30
132,119 133,219 134,549 135,1799
136,789 137,999 138,699 139,529
140,50 141,10 146,10 147,99
148,959 149,569 150,2089 151,1379
152,829 153,939 154,159 155,20
160,10 161,30 162,119 163,3389
164,399 165,689 166,659 167,839
168,189 169,30 177,259 178,1059
179,2029 180,479 181,4009 182,399
183,50 184,20 193,10 194,10
195,1389 196,9999 197,1149 198,59
##END=
