##TITLE=4-Cyclohexylresorcinol
##JCAMP-DX=4.24
##DATA TYPE=MASS SPECTRUM
##ORIGIN=NIST Mass Spectrometry Data Center, 1994
##OWNER=NIST Mass Spectrometry Data Center
Collection (C) 2014 copyright by the U.S. Secretary of Commerce
on behalf of the United States of America. All rights reserved.
##CAS REGISTRY NO=2138-20-7
##$NIST MASS SPEC NO=136366
##MOLFORM=C12 H16 O2
##MW=192
##$NIST SOURCE=MSDC
##XUNITS=M/Z
##YUNITS=RELATIVE INTENSITY
##XFACTOR=1
##YFACTOR=1
##FIRSTX=15
##LASTX=194
##FIRSTY=137
##MAXX=194
##MINX=15
##MAXY=9999
##MINY=21
##NPOINTS=106
##PEAK TABLE=(XY..XY)
15,137 18,68 19,41 26,162
27,1474 28,572 29,1060 30,50
38,159 39,2016 40,353 41,1663
42,338 43,557 50,258 51,970
52,424 53,996 54,190 55,1185
56,150 57,58 58,21 61,27
62,145 63,490 64,186 65,918
66,400 67,944 68,21 69,1839
70,95 71,103 74,30 75,105
77,1751 78,460 79,1129 80,328
81,1452 82,283 83,47 86,22
87,61 88,26 89,229 90,108
91,787 92,114 93,265 94,177
95,520 96,40 97,30 101,31
102,112 103,546 104,81 105,207
106,98 107,916 108,183 109,30
110,1204 111,187 112,49 115,299
116,65 117,89 118,56 119,75
120,49 121,1433 122,30 123,5993
124,551 125,59 127,79 128,57
129,43 131,217 132,59 133,108
134,107 135,489 136,2360 137,397
138,47 145,57 146,55 147,379
148,47 149,9999 150,1201 151,130
161,195 162,58 163,328 164,72
175,38 177,49 190,24 192,3630
193,487 194,41
##END=
