##TITLE=Benzaldehyde, 4-nitro-, [(4-nitrophenyl)methylene]hydrazone
##JCAMP-DX=4.24
##DATA TYPE=MASS SPECTRUM
##ORIGIN=Japan AIST/NIMC Database- Spectrum MS-IW-4228
##OWNER=NIST Mass Spectrometry Data Center
Collection (C) 2014 copyright by the U.S. Secretary of Commerce
on behalf of the United States of America. All rights reserved.
##CAS REGISTRY NO=2143-99-9
##$NIST MASS SPEC NO=244323
##MOLFORM=C14 H10 N4 O4
##MW=298
##$NIST SOURCE=MSDC
##XUNITS=M/Z
##YUNITS=RELATIVE INTENSITY
##XFACTOR=1
##YFACTOR=1
##FIRSTX=16
##LASTX=301
##FIRSTY=10
##MAXX=301
##MINX=16
##MAXY=9999
##MINY=10
##NPOINTS=177
##PEAK TABLE=(XY..XY)
16,10 26,40 27,259 28,589
29,20 30,269 31,50 37,20
38,50 39,279 40,10 41,30
42,10 43,40 44,80 45,40
46,20 49,10 50,749 51,619
52,129 53,30 54,10 55,30
56,10 57,60 61,10 62,109
63,629 64,309 65,209 66,30
67,10 69,30 70,10 71,50
73,10 74,149 75,929 76,2169
77,999 78,139 79,30 80,10
81,20 82,10 83,30 84,10
85,30 86,10 87,30 88,60
89,519 90,179 91,189 92,339
93,109 94,20 95,20 96,10
97,30 98,10 101,40 102,789
103,1729 104,749 105,129 106,30
107,20 109,10 111,20 113,10
114,20 115,30 116,30 117,20
118,349 119,159 120,50 121,20
122,149 123,50 124,10 125,20
126,60 127,40 128,80 129,139
130,2229 131,229 132,149 133,30
134,30 135,40 136,10 137,10
138,10 139,90 140,80 141,20
142,10 144,10 146,60 147,10
148,319 149,709 150,859 151,689
152,319 153,109 154,40 155,20
160,30 163,20 164,30 165,119
166,149 167,99 168,50 169,10
174,10 175,169 176,9999 177,1289
178,869 179,459 180,90 181,20
182,10 191,10 192,90 193,229
194,119 195,60 196,10 203,50
204,129 205,889 206,589 207,90
208,50 209,10 212,10 213,20
219,10 220,20 221,80 222,99
223,30 224,209 225,90 226,10
238,10 239,90 240,30 241,20
250,30 251,2059 252,539 253,70
254,10 266,10 267,70 268,149
269,30 270,259 271,589 272,80
273,10 281,239 282,139 283,20
297,2219 298,6909 299,1169 300,159
301,10
##END=
