##TITLE=1-Bromo-2,4,6-triisopropylbenzene
##JCAMP-DX=4.24
##DATA TYPE=MASS SPECTRUM
##ORIGIN=Japan AIST/NIMC Database- Spectrum MS-NW-6118
##OWNER=NIST Mass Spectrometry Data Center
Collection (C) 2014 copyright by the U.S. Secretary of Commerce
on behalf of the United States of America. All rights reserved.
##CAS REGISTRY NO=21524-34-5
##$NIST MASS SPEC NO=236255
##MOLFORM=C15 H23 Br
##MW=282
##$NIST SOURCE=MSDC
##XUNITS=M/Z
##YUNITS=RELATIVE INTENSITY
##XFACTOR=1
##YFACTOR=1
##FIRSTX=15
##LASTX=286
##FIRSTY=99
##MAXX=286
##MINX=15
##MAXY=9999
##MINY=10
##NPOINTS=222
##PEAK TABLE=(XY..XY)
15,99 26,20 27,859 28,40
29,329 37,10 38,30 39,609
40,80 41,2279 42,99 43,8939
44,299 50,109 51,429 52,119
53,339 54,20 55,259 56,20
57,90 58,90 59,10 62,70
63,309 64,389 65,379 66,60
67,149 68,20 69,90 70,149
71,299 72,99 73,20 74,70
75,149 76,269 77,749 78,289
79,279 80,50 81,50 82,60
83,60 84,50 85,40 86,50
87,60 88,40 89,139 90,40
91,1479 92,149 93,70 94,10
95,20 98,30 99,30 100,10
101,50 102,149 103,269 104,219
105,649 106,80 107,30 109,10
110,30 111,159 112,149 113,40
114,40 115,1039 116,479 117,1259
118,419 119,449 120,80 121,20
122,10 124,10 125,50 126,169
127,429 128,1029 129,949 130,569
131,799 132,199 133,209 134,30
135,10 138,10 139,90 140,40
141,489 142,359 143,479 144,309
145,1029 146,539 147,169 148,20
150,10 151,30 152,80 153,119
154,60 155,129 156,99 157,239
158,109 159,679 160,179 161,90
162,20 164,10 165,30 167,20
168,10 169,189 170,30 171,179
172,70 173,349 174,90 175,119
176,20 177,10 181,10 183,279
184,30 185,259 186,40 187,209
188,129 189,80 190,20 191,10
192,20 193,10 195,50 196,10
197,219 198,30 199,179 200,30
201,20 202,80 203,839 204,169
205,20 207,10 208,10 209,60
210,20 211,399 212,50 213,349
214,60 215,10 216,10 217,10
219,10 220,10 221,20 222,10
223,90 224,20 225,769 226,119
227,679 228,109 229,10 235,10
237,60 238,20 239,1269 240,209
241,1239 242,199 243,30 246,10
249,10 250,10 251,70 252,20
253,539 254,119 255,489 256,109
257,20 258,20 259,20 260,20
261,20 262,20 263,10 264,20
265,70 266,40 267,9959 268,1779
269,9999 270,1719 271,149 272,10
273,10 274,10 275,10 276,10
277,10 278,10 279,10 280,20
281,50 282,4349 283,799 284,4239
285,759 286,70
##END=
