##TITLE=Naphthalene, 1,2,3,4-tetrahydro-1,5,8-trimethyl-
##JCAMP-DX=4.24
##DATA TYPE=MASS SPECTRUM
##ORIGIN=CONTINENTAL OIL CO., PONCA CITY, OKLA, USA
##OWNER=NIST Mass Spectrometry Data Center
Collection (C) 2014 copyright by the U.S. Secretary of Commerce
on behalf of the United States of America. All rights reserved.
##CAS REGISTRY NO=21693-51-6
##$NIST MASS SPEC NO=27662
##MOLFORM=C13 H18
##MW=174
##$NIST SOURCE=MSDC
##XUNITS=M/Z
##YUNITS=RELATIVE INTENSITY
##XFACTOR=1
##YFACTOR=1
##FIRSTX=13
##LASTX=176
##FIRSTY=5
##MAXX=176
##MINX=13
##MAXY=9999
##MINY=5
##NPOINTS=113
##PEAK TABLE=(XY..XY)
13,5 14,20 15,494 16,8
26,50 27,611 28,148 29,278
30,5 37,7 38,44 39,657
40,82 41,387 42,24 43,46
44,20 50,119 51,446 52,126
53,283 54,19 55,52 56,10
57,34 58,56 59,9 61,8
62,59 63,280 64,225 65,301
66,36 67,90 68,10 69,35
70,106 71,423 72,108 74,46
75,90 76,163 77,538 78,218
79,159 81,15 82,15 84,15
85,26 86,56 87,49 88,18
89,97 90,26 91,554 92,58
93,21 98,15 99,11 100,6
101,35 102,113 103,161 104,70
105,262 106,35 107,14 111,6
113,26 114,35 115,859 116,292
117,352 118,92 119,327 120,40
125,14 126,44 127,315 128,1049
129,1043 130,327 131,507 132,579
133,108 134,18 139,73 140,45
141,471 142,350 143,554 144,948
145,306 146,190 147,40 151,27
152,68 153,59 154,29 155,66
156,52 157,161 158,179 159,9999
160,1299 161,81 165,10 171,8
172,11 173,88 174,2185 175,310
176,20
##END=
