##TITLE=5-Azulenemethanol, 1,2,3,3a,4,5,6,7-octahydro-.alpha.,.alpha.,3,8-tetramethyl-, [3S-(3.alpha.,3a.beta.,5.alpha.)]-
##JCAMP-DX=4.24
##DATA TYPE=MASS SPECTRUM
##OWNER=NIST Mass Spectrometry Data Center
Collection (C) 2014 copyright by the U.S. Secretary of Commerce
on behalf of the United States of America. All rights reserved.
##CAS REGISTRY NO=22451-73-6
##$NIST MASS SPEC NO=10456
##MOLFORM=C15 H26 O
##MW=222
##$NIST SOURCE=MSDC
##XUNITS=M/Z
##YUNITS=RELATIVE INTENSITY
##XFACTOR=1
##YFACTOR=1
##FIRSTX=15
##LASTX=223
##FIRSTY=110
##MAXX=223
##MINX=15
##MAXY=9999
##MINY=50
##NPOINTS=112
##PEAK TABLE=(XY..XY)
15,110 17,420 18,510 26,90
27,651 28,1732 29,1111 31,841
39,981 40,190 41,3143 42,210
43,2933 44,220 45,170 50,60
51,240 52,150 53,1111 54,150
55,2472 56,160 57,360 58,140
59,9268 60,330 63,100 64,100
65,621 66,240 67,1692 68,661
69,1661 70,150 71,591 72,80
75,100 77,1551 78,410 79,2903
80,591 81,3593 82,621 83,550
84,90 85,130 87,70 88,80
89,100 90,60 91,2682 92,530
93,5855 94,1311 95,2312 96,761
97,180 103,220 104,130 105,3863
106,901 107,6906 108,3043 109,1351
110,260 111,130 115,200 116,90
117,290 118,130 119,2382 120,621
121,2102 122,971 123,621 124,70
127,80 128,120 129,120 130,80
131,220 132,120 133,1591 134,1381
135,9999 136,1591 137,160 145,200
146,100 147,1481 148,861 149,1621
150,210 151,50 159,130 160,120
161,5205 162,1001 163,931 164,240
175,290 176,140 188,120 189,2422
190,370 203,70 204,2522 205,410
206,60 207,100 222,761 223,120
##END=
