##TITLE=Benzo[a]naphthacene
##JCAMP-DX=4.24
##DATA TYPE=MASS SPECTRUM
##ORIGIN=Chemical Concepts
##OWNER=NIST Mass Spectrometry Data Center
Collection (C) 2014 copyright by the U.S. Secretary of Commerce
on behalf of the United States of America. All rights reserved.
##CAS REGISTRY NO=226-88-0
##$NIST MASS SPEC NO=154319
##MOLFORM=C22 H14
##MW=278
##$NIST SOURCE=MSDC
##XUNITS=M/Z
##YUNITS=RELATIVE INTENSITY
##XFACTOR=1
##YFACTOR=1
##FIRSTX=27
##LASTX=280
##FIRSTY=64
##MAXX=280
##MINX=27
##MAXY=9999
##MINY=1
##NPOINTS=107
##PEAK TABLE=(XY..XY)
27,64 38,43 39,129 50,81
51,77 52,3 61,9 62,51
63,83 74,57 75,40 76,1
84,11 86,38 87,65 88,18
89,1 98,35 99,29 100,36
101,13 110,22 111,29 112,50
113,76 114,10 122,17 123,12
124,59 125,113 126,73 131,7
134,12 135,11 136,31 137,107
138,254 139,449 140,22 146,5
150,22 151,16 152,10 161,1
162,9 163,22 174,12 175,16
176,20 185,10 186,13 187,37
188,14 189,18 198,22 199,16
200,36 201,18 202,10 209,8
210,9 211,27 212,12 213,18
214,13 215,13 222,34 223,26
224,85 225,43 226,48 227,20
228,9 235,31 236,22 237,63
238,15 239,41 240,9 246,21
247,24 248,116 249,73 250,198
251,44 252,125 253,31 260,8
261,36 262,18 263,60 264,15
265,123 266,166 267,37 268,9
270,10 271,11 272,81 273,74
274,526 275,261 276,1782 277,536
278,9999 279,2243 280,310
##END=
