##TITLE=4-Tritylaniline
##JCAMP-DX=4.24
##DATA TYPE=MASS SPECTRUM
##ORIGIN=NIST Mass Spectrometry Data Center, 1994
##OWNER=NIST Mass Spectrometry Data Center
Collection (C) 2014 copyright by the U.S. Secretary of Commerce
on behalf of the United States of America. All rights reserved.
##CAS REGISTRY NO=22948-06-7
##$NIST MASS SPEC NO=135893
##MOLFORM=C25 H21 N
##MW=335
##$NIST SOURCE=MSDC
##XUNITS=M/Z
##YUNITS=RELATIVE INTENSITY
##XFACTOR=1
##YFACTOR=1
##FIRSTX=18
##LASTX=337
##FIRSTY=5
##MAXX=337
##MINX=18
##MAXY=9999
##MINY=3
##NPOINTS=130
##PEAK TABLE=(XY..XY)
18,5 28,141 30,130 32,3
38,29 39,302 40,34 41,83
42,74 50,179 51,855 52,152
53,78 54,70 62,38 63,150
64,59 65,276 66,51 67,28
75,78 76,119 77,601 78,168
79,35 80,41 87,54 88,64
89,122 90,38 91,183 92,104
93,81 94,26 100,35 101,102
102,72 103,64 106,117 107,40
109,41 113,153 114,83 115,390
116,71 119,57 120,90 121,85
122,76 125,31 126,112 127,312
128,31 129,593 130,46 132,25
137,33 138,61 139,228 140,77
141,65 143,38 146,27 150,78
151,195 152,575 153,438 154,112
159,27 163,239 164,335 165,2464
166,455 167,120 168,82 169,93
170,21 176,81 177,60 178,106
179,21 180,3051 181,509 182,114
187,47 189,163 190,56 191,62
193,27 200,80 201,87 202,277
203,104 204,40 213,109 215,409
216,128 217,61 224,42 225,58
226,316 227,166 228,232 229,120
230,149 237,114 238,88 239,659
240,308 241,418 242,173 243,392
244,101 250,29 251,30 252,41
253,63 254,201 255,29 256,575
257,29 258,9999 259,2140 260,237
289,39 317,32 319,33 335,4984
336,1394 337,195
##END=
