##TITLE=Heneicosanoic acid
##JCAMP-DX=4.24
##DATA TYPE=MASS SPECTRUM
##ORIGIN=Japan AIST/NIMC Database- Spectrum MS-NW-6815
##OWNER=NIST Mass Spectrometry Data Center
Collection (C) 2014 copyright by the U.S. Secretary of Commerce
on behalf of the United States of America. All rights reserved.
##CAS REGISTRY NO=2363-71-5
##$NIST MASS SPEC NO=233003
##MOLFORM=C21 H42 O2
##MW=326
##$NIST SOURCE=MSDC
##XUNITS=M/Z
##YUNITS=RELATIVE INTENSITY
##XFACTOR=1
##YFACTOR=1
##FIRSTX=17
##LASTX=329
##FIRSTY=20
##MAXX=329
##MINX=17
##MAXY=9999
##MINY=10
##NPOINTS=212
##PEAK TABLE=(XY..XY)
17,20 18,70 26,20 27,559
28,149 29,1759 30,50 31,50
32,10 39,369 40,80 41,3619
42,789 43,6559 44,239 45,259
47,10 51,10 52,20 53,189
54,349 55,3979 56,1199 57,5879
58,289 59,189 60,4539 61,2009
62,70 63,10 65,30 66,40
67,519 68,489 69,2609 70,879
71,3219 72,189 73,5369 74,459
75,40 77,30 78,20 79,90
80,80 81,439 82,549 83,2039
84,829 85,1979 86,149 87,1069
88,109 89,20 91,30 92,10
93,80 94,70 95,319 96,449
97,1729 98,1279 99,699 100,80
101,509 102,199 103,20 105,10
106,10 107,80 108,40 109,179
110,219 111,929 112,409 113,429
114,50 115,829 116,599 117,50
119,10 121,129 122,50 123,90
124,139 125,529 126,209 127,319
128,50 129,2739 130,289 131,30
133,10 135,109 136,30 137,60
138,109 139,299 140,149 141,229
142,40 143,299 144,60 145,10
149,80 150,20 151,20 152,70
153,179 154,119 155,179 156,30
157,169 158,119 159,10 163,50
164,10 165,20 166,60 167,129
168,90 169,139 170,20 171,609
172,189 173,20 177,20 178,10
179,10 180,50 181,90 182,70
183,119 184,20 185,869 186,139
187,20 191,20 194,40 195,70
196,80 197,109 198,20 199,169
200,40 205,10 207,10 208,50
209,50 210,80 211,60 212,10
213,159 214,70 215,10 221,10
222,70 223,50 224,60 225,40
226,10 227,719 228,159 229,20
235,10 236,20 237,40 238,90
239,20 241,429 242,90 243,10
251,20 252,40 253,10 255,90
256,30 264,169 265,50 266,219
267,159 268,30 269,179 270,60
271,10 278,10 279,10 280,60
281,20 283,1129 284,239 285,30
289,10 290,90 291,20 292,10
293,10 297,189 298,50 299,10
306,10 307,20 308,80 309,50
310,10 311,10 324,10 325,40
326,9999 327,2439 328,319 329,30
##END=
