##TITLE=2H-2,4a-Methanonaphthalen-8(5H)-one, 1,3,4,6,7,8a-hexahydro-1,1,5,5-tetramethyl-
##JCAMP-DX=4.24
##DATA TYPE=MASS SPECTRUM
##ORIGIN=Chemical Concepts
##OWNER=NIST Mass Spectrometry Data Center
Collection (C) 2014 copyright by the U.S. Secretary of Commerce
on behalf of the United States of America. All rights reserved.
##CAS REGISTRY NO=23787-90-8
##$NIST MASS SPEC NO=159381
##MOLFORM=C15 H24 O
##MW=220
##$NIST SOURCE=MSDC
##XUNITS=M/Z
##YUNITS=RELATIVE INTENSITY
##XFACTOR=1
##YFACTOR=1
##FIRSTX=26
##LASTX=222
##FIRSTY=428
##MAXX=222
##MINX=26
##MAXY=9999
##MINY=57
##NPOINTS=121
##PEAK TABLE=(XY..XY)
26,428 27,3773 28,631 29,3854
30,79 38,90 39,3359 40,654
41,9352 42,776 43,2722 44,111
50,172 51,696 52,453 53,2187
54,404 55,4815 56,878 57,464
58,99 59,133 63,203 64,129
65,1184 66,484 67,2124 68,344
69,2156 70,473 71,327 72,92
75,79 77,2430 78,550 79,2798
80,756 81,1769 82,731 83,1814
84,165 85,108 89,116 90,66
91,2587 92,532 93,1985 94,876
95,1484 96,742 97,471 98,91
99,101 103,473 104,128 105,1500
106,2259 107,3548 108,1509 109,1769
110,625 111,249 113,230 115,187
116,107 117,454 118,165 119,838
120,512 121,4703 122,1792 123,1644
124,512 125,271 128,97 129,71
131,468 132,101 133,540 134,146
135,1327 136,1567 137,516 138,2510
139,441 143,67 145,271 146,325
147,419 148,192 149,3553 150,656
151,3876 152,763 153,89 159,571
160,82 161,313 162,158 163,1037
164,9999 165,1521 166,163 173,131
174,57 175,59 176,94 177,3247
178,563 179,104 187,449 188,74
191,3386 192,776 193,69 202,183
205,2206 206,325 220,5903 221,1080
222,111
##END=
