##TITLE=2,6-Diisopropylnaphthalene
##JCAMP-DX=4.24
##DATA TYPE=MASS SPECTRUM
##ORIGIN=NIST Mass Spectrometry Data Center, 1994
##OWNER=NIST Mass Spectrometry Data Center
Collection (C) 2014 copyright by the U.S. Secretary of Commerce
on behalf of the United States of America. All rights reserved.
##CAS REGISTRY NO=24157-81-1
##$NIST MASS SPEC NO=135672
##MOLFORM=C16 H20
##MW=212
##$NIST SOURCE=MSDC
##XUNITS=M/Z
##YUNITS=RELATIVE INTENSITY
##XFACTOR=1
##YFACTOR=1
##FIRSTX=12
##LASTX=214
##FIRSTY=14
##MAXX=214
##MINX=12
##MAXY=9999
##MINY=14
##NPOINTS=97
##PEAK TABLE=(XY..XY)
12,14 15,500 27,1728 28,110
37,16 38,49 39,716 40,99
41,1332 42,16 43,2104 44,40
50,122 51,325 52,68 53,103
55,28 58,49 62,87 63,416
64,154 65,112 66,20 70,119
71,72 75,245 76,649 77,555
78,112 79,15 82,324 83,405
84,248 86,44 87,117 88,177
89,432 90,15 91,885 94,39
95,38 97,20 99,230 100,31
101,88 102,152 103,37 111,20
113,80 115,962 116,107 117,19
125,42 126,220 127,534 128,882
129,663 130,67 139,373 141,1505
142,242 143,34 149,25 150,194
151,514 152,1785 153,2380 154,1081
155,4365 156,549 157,47 162,24
163,109 165,1373 166,578 167,916
168,256 169,936 170,149 176,96
177,76 178,310 179,223 180,76
181,603 182,504 183,154 184,23
189,41 191,19 195,95 197,9999
198,1709 199,141 212,3700 213,667
214,61
##END=
