##TITLE=2-Phenoxyphenylacetic acid
##JCAMP-DX=4.24
##DATA TYPE=MASS SPECTRUM
##ORIGIN=NIST Mass Spectrometry Data Center, 1994
##OWNER=NIST Mass Spectrometry Data Center
Collection (C) 2014 copyright by the U.S. Secretary of Commerce
on behalf of the United States of America. All rights reserved.
##CAS REGISTRY NO=25563-02-4
##$NIST MASS SPEC NO=134883
##MOLFORM=C14 H12 O3
##MW=228
##$NIST SOURCE=MSDC
##XUNITS=M/Z
##YUNITS=RELATIVE INTENSITY
##XFACTOR=1
##YFACTOR=1
##FIRSTX=17
##LASTX=230
##FIRSTY=55
##MAXX=230
##MINX=17
##MAXY=9999
##MINY=50
##NPOINTS=91
##PEAK TABLE=(XY..XY)
17,55 18,136 27,1019 28,595
29,161 32,111 37,137 38,560
39,3077 40,355 41,155 43,63
45,1323 50,1726 51,6770 52,1206
53,806 54,63 55,1348 61,98
62,582 63,1940 64,880 65,1424
66,465 67,65 69,62 73,52
74,411 75,507 76,1420 77,7264
78,3119 79,944 80,55 81,87
82,92 86,82 87,117 89,1671
90,1136 91,3940 93,100 94,391
101,66 102,186 103,130 104,66
105,385 106,3562 107,1644 108,137
115,1631 116,220 118,102 121,50
126,187 127,854 128,1213 129,1011
130,131 131,99 133,65 134,86
135,104 139,306 140,118 141,574
142,140 144,65 150,111 151,320
152,1428 153,2378 154,1223 155,4424
156,676 157,102 165,3429 166,717
167,506 168,685 169,535 181,4546
182,1323 183,6918 184,2004 185,309
228,9999 229,1570 230,135
##END=
