##TITLE=2,4,6-Trimethoxybenzonitrile
##JCAMP-DX=4.24
##DATA TYPE=MASS SPECTRUM
##ORIGIN=Japan AIST/NIMC Database- Spectrum MS-IW- 721
##OWNER=NIST Mass Spectrometry Data Center
Collection (C) 2014 copyright by the U.S. Secretary of Commerce
on behalf of the United States of America. All rights reserved.
##CAS REGISTRY NO=2571-54-2
##$NIST MASS SPEC NO=239426
##MOLFORM=C10 H11 N O3
##MW=193
##$NIST SOURCE=MSDC
##XUNITS=M/Z
##YUNITS=RELATIVE INTENSITY
##XFACTOR=1
##YFACTOR=1
##FIRSTX=15
##LASTX=195
##FIRSTY=90
##MAXX=195
##MINX=15
##MAXY=9999
##MINY=10
##NPOINTS=118
##PEAK TABLE=(XY..XY)
15,90 26,10 27,30 28,109
29,20 30,10 37,20 38,50
39,90 40,10 41,50 42,60
43,50 45,10 46,10 50,50
51,50 52,70 53,109 54,20
55,40 56,10 57,10 59,99
60,20 61,50 62,70 63,119
64,129 65,129 66,189 67,90
68,60 69,429 70,10 72,40
75,60 76,239 77,449 78,149
79,179 80,60 81,70 82,40
83,20 87,30 88,99 89,60
90,90 91,90 92,119 93,70
94,90 95,139 96,179 97,30
98,90 99,99 100,10 102,30
103,70 104,269 105,179 106,179
107,229 108,149 109,179 110,40
111,30 115,10 116,10 117,60
118,50 119,70 120,369 121,119
122,99 123,60 124,20 125,149
126,10 130,20 131,20 132,199
133,279 134,489 135,309 136,299
137,349 138,119 139,30 145,10
146,40 147,269 148,219 149,519
150,689 151,99 152,10 153,20
160,50 161,40 162,539 163,429
164,1899 165,619 166,70 167,10
174,10 175,10 176,149 177,90
178,159 179,20 192,1239 193,9999
194,1149 195,119
##END=
