##TITLE=1H-Benzotriazole, 1-hydroxy-
##JCAMP-DX=4.24
##DATA TYPE=MASS SPECTRUM
##ORIGIN=Japan AIST/NIMC Database- Spectrum MS-NW-1187
##OWNER=NIST Mass Spectrometry Data Center
Collection (C) 2014 copyright by the U.S. Secretary of Commerce
on behalf of the United States of America. All rights reserved.
##CAS REGISTRY NO=2592-95-2
##$NIST MASS SPEC NO=230609
##MOLFORM=C6 H5 N3 O
##MW=135
##$NIST SOURCE=MSDC
##XUNITS=M/Z
##YUNITS=RELATIVE INTENSITY
##XFACTOR=1
##YFACTOR=1
##FIRSTX=12
##LASTX=137
##FIRSTY=70
##MAXX=137
##MINX=12
##MAXY=9999
##MINY=10
##NPOINTS=108
##PEAK TABLE=(XY..XY)
12,70 13,20 14,239 15,50
16,99 17,59 18,279 24,40
25,149 26,689 27,1009 28,5219
29,389 30,2969 31,169 32,50
34,20 36,249 37,2719 38,3489
39,5979 40,789 41,1569 42,90
43,149 44,539 45,469 46,40
48,99 49,549 50,3889 51,5439
52,9569 53,1269 54,119 55,199
56,60 57,159 58,20 59,70
60,229 61,1149 62,1859 63,8419
64,9999 65,2239 66,219 67,70
68,60 69,99 70,50 71,99
72,30 73,269 74,969 75,709
76,2059 77,9189 78,3859 79,1239
80,159 81,70 82,40 83,80
84,30 85,70 86,90 87,239
88,329 89,189 90,7899 91,9789
92,729 93,189 94,319 95,60
96,30 97,70 98,30 99,20
100,10 101,20 102,30 103,50
104,30 105,80 106,319 107,9009
108,649 109,90 110,20 111,40
112,20 113,20 114,10 115,40
116,20 117,20 118,20 119,9619
120,759 121,30 123,119 124,20
125,20 135,1749 136,149 137,20
##END=
