##TITLE=Pyridine, 4,4'-dithiobis-
##JCAMP-DX=4.24
##DATA TYPE=MASS SPECTRUM
##ORIGIN=Japan AIST/NIMC Database- Spectrum MS-IW-1204
##OWNER=NIST Mass Spectrometry Data Center
Collection (C) 2014 copyright by the U.S. Secretary of Commerce
on behalf of the United States of America. All rights reserved.
##CAS REGISTRY NO=2645-22-9
##$NIST MASS SPEC NO=237945
##MOLFORM=C10 H8 N2 S2
##MW=220
##$NIST SOURCE=MSDC
##XUNITS=M/Z
##YUNITS=RELATIVE INTENSITY
##XFACTOR=1
##YFACTOR=1
##FIRSTX=26
##LASTX=224
##FIRSTY=40
##MAXX=224
##MINX=26
##MAXY=9999
##MINY=10
##NPOINTS=111
##PEAK TABLE=(XY..XY)
26,40 27,20 28,99 32,10
37,10 38,80 39,1169 40,50
41,10 44,50 45,99 49,10
50,149 51,1189 52,199 53,20
54,30 56,10 57,219 58,70
59,519 60,30 61,20 64,20
65,10 66,30 67,99 69,179
70,80 71,40 74,20 75,10
76,30 77,10 78,1749 79,509
80,30 81,70 82,189 83,569
84,90 85,30 86,10 94,99
96,10 97,109 98,109 99,10
102,10 103,10 104,10 105,20
108,10 109,50 110,999 111,389
112,70 113,10 115,10 116,40
117,10 122,60 123,30 124,80
128,10 129,109 130,30 134,10
135,129 136,50 137,10 141,20
142,299 143,349 144,60 145,20
148,30 149,20 154,40 155,249
156,789 157,90 159,10 160,60
161,10 162,10 163,159 164,10
166,10 167,20 174,10 175,40
176,70 180,10 185,10 186,40
187,1029 188,169 189,50 190,10
191,40 192,179 193,189 194,30
195,20 219,329 220,9999 221,1379
222,979 223,109 224,20
##END=
