##TITLE=2,2'-Binaphthalene, 1,1',2,2',3,3',4,4'-octahydro-
##JCAMP-DX=4.24
##DATA TYPE=MASS SPECTRUM
##ORIGIN=E.J.EISENBRAUN CONTINENTAL OIL CO., PONCA CITY, OKLAHOMA, USA
##OWNER=NIST Mass Spectrometry Data Center
Collection (C) 2014 copyright by the U.S. Secretary of Commerce
on behalf of the United States of America. All rights reserved.
##CAS REGISTRY NO=27426-98-8
##$NIST MASS SPEC NO=12699
##MOLFORM=C20 H22
##MW=262
##$NIST SOURCE=MSDC
##XUNITS=M/Z
##YUNITS=RELATIVE INTENSITY
##XFACTOR=1
##YFACTOR=1
##FIRSTX=12
##LASTX=264
##FIRSTY=5
##MAXX=264
##MINX=12
##MAXY=9999
##MINY=5
##NPOINTS=139
##PEAK TABLE=(XY..XY)
12,5 13,24 14,65 15,278
16,38 26,71 27,611 28,447
29,174 30,30 37,31 38,79
39,783 40,122 41,403 42,58
43,367 44,60 50,149 51,556
52,186 53,559 54,29 55,142
56,43 57,49 58,101 62,64
63,341 64,125 65,486 66,48
67,59 68,20 69,36 70,34
71,25 74,52 75,104 76,126
77,891 78,896 79,183 80,18
81,31 83,43 87,37 88,39
89,285 90,58 91,3262 92,105
93,53 94,16 95,19 96,13
98,21 99,20 100,19 101,108
102,364 103,1115 104,3940 105,364
106,77 107,34 108,23 113,54
114,101 115,2132 116,1162 117,840
118,378 119,154 120,31 121,18
125,46 126,112 127,631 128,1731
129,3198 130,3604 131,9999 132,324
133,38 134,36 139,64 140,27
141,312 142,190 143,615 144,114
145,49 146,9 150,20 151,39
152,99 153,79 154,133 155,104
156,348 157,457 158,34 163,18
165,53 166,13 167,32 168,30
169,79 170,70 171,85 172,6
176,18 178,29 179,21 180,10
189,24 191,25 193,16 202,32
203,16 204,12 205,22 207,23
208,12 215,31 217,15 219,18
226,18 228,18 234,20 239,15
254,18 258,54 259,10 260,65
262,4728 263,1100 264,110
##END=
