##TITLE=2,4-Dichloro-6,7-dimethoxyquinazoline
##JCAMP-DX=4.24
##DATA TYPE=MASS SPECTRUM
##ORIGIN=NIST Mass Spectrometry Data Center, 1994
##OWNER=NIST Mass Spectrometry Data Center
Collection (C) 2014 copyright by the U.S. Secretary of Commerce
on behalf of the United States of America. All rights reserved.
##CAS REGISTRY NO=27631-29-4
##$NIST MASS SPEC NO=136133
##MOLFORM=C10 H8 Cl2 N2 O2
##MW=258
##$NIST SOURCE=MSDC
##XUNITS=M/Z
##YUNITS=RELATIVE INTENSITY
##XFACTOR=1
##YFACTOR=1
##FIRSTX=13
##LASTX=263
##FIRSTY=67
##MAXX=263
##MINX=13
##MAXY=9999
##MINY=27
##NPOINTS=177
##PEAK TABLE=(XY..XY)
13,67 14,288 15,6451 16,29
18,85 26,87 28,129 29,644
30,116 31,102 35,146 36,106
37,388 38,383 39,364 41,45
42,84 43,80 47,304 48,57
49,431 50,1402 51,883 52,216
53,589 54,87 60,88 61,615
62,810 63,1029 64,389 65,572
66,102 67,114 68,163 69,47
70,28 71,93 72,876 73,594
74,509 75,1303 76,1699 77,588
78,499 79,113 80,39 81,27
84,179 85,185 86,281 87,627
88,1080 89,370 90,1048 91,324
92,68 93,172 96,51 97,394
98,279 99,933 100,703 101,666
102,682 103,243 104,1554 105,115
107,45 109,53 110,224 111,819
112,161 113,492 114,145 115,166
116,126 117,492 118,244 119,242
122,63 123,71 124,450 125,53
126,1741 127,323 128,586 129,179
130,112 131,37 132,199 133,239
134,83 135,185 136,378 137,201
138,243 139,87 140,57 142,260
143,61 144,224 145,337 146,89
147,86 149,167 150,75 151,558
152,1063 153,284 154,2117 155,201
156,617 157,65 160,219 161,72
162,238 163,175 164,74 165,213
166,34 167,57 168,42 172,406
173,383 174,237 176,38 177,212
178,254 179,1083 180,200 181,312
182,50 185,156 186,119 187,199
188,874 189,199 190,44 193,172
195,46 196,41 197,146 198,52
199,130 200,175 201,74 202,97
207,314 209,110 213,337 215,1941
216,225 217,1217 218,116 219,179
223,254 224,42 225,114 227,43
228,63 229,54 230,53 241,83
243,2644 244,322 245,1760 246,234
247,292 248,36 256,30 258,9999
259,1264 260,6447 261,790 262,1101
263,125
##END=
