##TITLE=Difenoxin
##JCAMP-DX=4.24
##DATA TYPE=MASS SPECTRUM
##ORIGIN=Patti Price, Georgia Bureau of Investigation, Decatur, Georgia
##OWNER=NIST Mass Spectrometry Data Center
Collection (C) 2014 copyright by the U.S. Secretary of Commerce
on behalf of the United States of America. All rights reserved.
##CAS REGISTRY NO=28782-42-5
##$NIST MASS SPEC NO=248672
##MOLFORM=C28 H28 N2 O2
##MW=424
##$NIST SOURCE=MSDC
##XUNITS=M/Z
##YUNITS=RELATIVE INTENSITY
##XFACTOR=1
##YFACTOR=1
##FIRSTX=41
##LASTX=426
##FIRSTY=60
##MAXX=426
##MINX=41
##MAXY=9999
##MINY=10
##NPOINTS=114
##PEAK TABLE=(XY..XY)
41,60 42,580 43,70 44,60
45,10 51,40 52,10 53,20
54,30 55,100 56,180 57,40
58,20 59,10 60,40 61,10
65,40 66,10 67,10 68,50
69,70 70,30 71,10 76,20
77,100 78,30 79,20 80,20
81,20 82,70 83,60 84,30
86,40 87,10 90,10 91,420
92,50 93,10 96,30 97,10
102,20 103,140 104,40 105,40
106,10 107,10 108,30 109,10
115,170 116,80 117,80 118,30
119,20 120,30 121,10 126,10
127,20 128,70 129,100 130,30
131,80 132,10 140,20 141,10
143,30 144,20 145,10 149,40
150,10 152,20 153,10 156,30
157,10 158,80 159,20 160,10
164,20 165,130 166,20 167,10
171,20 172,120 173,30 174,60
178,20 179,20 184,20 185,10
186,30 187,10 190,70 191,30
192,30 193,10 199,20 200,10
204,40 205,10 216,20 217,50
218,9999 219,1121 220,110 221,10
230,40 231,90 232,70 233,10
380,10 384,10 423,20 424,70
425,20 426,10
##END=
