##TITLE=p-Methoxybenzylidene-p-ethylaniline
##JCAMP-DX=4.24
##DATA TYPE=MASS SPECTRUM
##ORIGIN=NIST Mass Spectrometry Data Center, 1994
##OWNER=NIST Mass Spectrometry Data Center
Collection (C) 2014 copyright by the U.S. Secretary of Commerce
on behalf of the United States of America. All rights reserved.
##CAS REGISTRY NO=29743-18-8
##$NIST MASS SPEC NO=135600
##MOLFORM=C16 H17 N O
##MW=239
##$NIST SOURCE=MSDC
##XUNITS=M/Z
##YUNITS=RELATIVE INTENSITY
##XFACTOR=1
##YFACTOR=1
##FIRSTX=13
##LASTX=241
##FIRSTY=26
##MAXX=241
##MINX=13
##MAXY=9999
##MINY=11
##NPOINTS=115
##PEAK TABLE=(XY..XY)
13,26 15,1315 16,21 17,11
18,22 27,472 28,127 37,44
38,149 39,904 40,101 41,96
50,435 51,1195 52,229 53,231
55,31 58,14 62,161 63,716
64,398 65,776 66,97 70,21
75,193 76,444 77,2083 78,547
79,704 80,53 82,51 84,156
87,46 89,926 90,806 91,606
92,215 93,126 94,23 96,124
97,190 101,84 102,252 103,682
104,267 105,402 106,65 107,38
108,65 112,178 114,45 115,121
116,253 117,79 118,52 120,197
121,68 126,30 127,115 128,103
129,35 130,192 131,71 132,67
133,96 134,78 135,34 139,118
140,90 141,52 146,229 147,27
151,84 152,295 153,182 154,160
155,45 164,37 165,141 166,296
167,340 168,118 169,34 177,32
178,114 180,1513 181,972 182,156
183,24 190,26 191,58 192,83
193,123 194,122 195,170 196,137
197,123 198,22 206,32 207,78
208,154 209,467 210,172 211,34
212,19 221,22 222,129 224,9999
225,1810 226,168 236,86 238,1700
239,6715 240,1173 241,107
##END=
