##TITLE=5,6-Dimethyl-1,10-phenanthroline
##JCAMP-DX=4.24
##DATA TYPE=MASS SPECTRUM
##ORIGIN=NIST Mass Spectrometry Data Center, 1994
##OWNER=NIST Mass Spectrometry Data Center
Collection (C) 2014 copyright by the U.S. Secretary of Commerce
on behalf of the United States of America. All rights reserved.
##CAS REGISTRY NO=3002-81-1
##$NIST MASS SPEC NO=133823
##MOLFORM=C14 H12 N2
##MW=208
##$NIST SOURCE=MSDC
##XUNITS=M/Z
##YUNITS=RELATIVE INTENSITY
##XFACTOR=1
##YFACTOR=1
##FIRSTX=4
##LASTX=210
##FIRSTY=4
##MAXX=210
##MINX=4
##MAXY=9999
##MINY=4
##NPOINTS=96
##PEAK TABLE=(XY..XY)
4,4 15,36 26,69 27,339
28,304 32,19 38,152 39,449
40,42 41,39 50,387 51,664
52,198 53,65 55,24 56,26
61,82 62,245 63,669 64,158
65,94 70,274 74,289 75,573
76,692 77,584 78,196 79,34
83,459 85,33 86,107 87,217
88,226 89,581 96,368 98,114
99,147 100,124 101,171 102,346
103,440 104,523 110,29 111,61
112,49 113,153 114,147 115,90
116,59 117,36 123,29 124,29
125,142 126,205 127,299 128,132
129,44 130,55 137,89 138,197
139,324 140,459 141,116 142,45
150,181 151,423 152,614 153,253
154,268 155,69 164,392 165,376
166,680 167,389 168,146 169,31
176,66 177,181 178,326 179,398
180,625 181,494 182,103 190,47
191,280 192,1943 193,9999 194,1511
195,120 203,57 205,1092 206,436
207,2316 208,9852 209,1469 210,123
##END=
