##TITLE=Pirimicarb-desmethyl
##JCAMP-DX=4.24
##DATA TYPE=MASS SPECTRUM
##ORIGIN=J. SHAW, BORRISTON RESEARCH, ROCKVILLE, MD, USA
##OWNER=NIST Mass Spectrometry Data Center
Collection (C) 2014 copyright by the U.S. Secretary of Commerce
on behalf of the United States of America. All rights reserved.
##CAS REGISTRY NO=30614-22-3
##$NIST MASS SPEC NO=60470
##MOLFORM=C10 H16 N4 O2
##MW=224
##$NIST SOURCE=MSDC
##XUNITS=M/Z
##YUNITS=RELATIVE INTENSITY
##XFACTOR=1
##YFACTOR=1
##FIRSTX=12
##LASTX=226
##FIRSTY=20
##MAXX=226
##MINX=12
##MAXY=9999
##MINY=10
##NPOINTS=131
##PEAK TABLE=(XY..XY)
12,20 13,20 15,4744 16,190
17,440 18,2842 19,20 25,10
26,260 27,1561 28,2062 29,450
30,750 31,130 32,60 33,70
37,30 38,100 39,600 40,280
41,910 42,2942 43,900 44,610
45,200 46,460 47,80 48,10
49,10 50,50 51,180 52,340
53,880 54,520 55,1111 56,1061
57,1441 58,120 59,10 60,10
61,10 62,10 63,20 64,30
65,60 66,200 67,370 68,400
69,960 70,180 72,9999 73,650
74,50 75,10 76,10 77,40
78,50 79,220 80,140 81,130
82,170 83,570 84,70 85,30
86,10 88,10 89,10 90,20
91,20 92,30 93,90 94,80
95,600 96,840 97,320 98,320
99,30 100,10 103,10 104,20
105,60 106,10 107,50 108,40
109,570 110,160 111,60 112,20
113,60 119,10 120,40 121,30
122,40 123,290 124,980 125,300
127,1151 128,90 129,10 134,50
135,40 136,170 137,180 138,540
139,110 140,10 141,10 149,30
150,40 152,6426 153,1551 154,170
155,10 164,40 165,10 166,160
167,30 177,10 178,10 179,170
180,90 181,30 182,10 192,80
193,30 194,10 207,70 208,10
224,1061 225,190 226,20
##END=
