##TITLE=2,4,6-Trimethyldiphenylsulphone
##JCAMP-DX=4.24
##DATA TYPE=MASS SPECTRUM
##ORIGIN=V.A.KOPTYUG, ATLAS OF MASS SPECTRA OF ORGANIC COMPOUNDS
##OWNER=NIST Mass Spectrometry Data Center
Collection (C) 2014 copyright by the U.S. Secretary of Commerce
on behalf of the United States of America. All rights reserved.
##CAS REGISTRY NO=3112-82-1
##$NIST MASS SPEC NO=78732
##MOLFORM=C15 H16 O2 S
##MW=260
##$NIST SOURCE=MSDC
##XUNITS=M/Z
##YUNITS=RELATIVE INTENSITY
##XFACTOR=1
##YFACTOR=1
##FIRSTX=28
##LASTX=262
##FIRSTY=2344
##MAXX=262
##MINX=28
##MAXY=9999
##MINY=128
##NPOINTS=100
##PEAK TABLE=(XY..XY)
28,2344 29,300 39,1243 41,2405
42,171 43,428 44,3576 45,682
46,171 47,214 48,476 50,257
51,1505 52,343 53,864 55,511
56,171 57,214 59,171 63,128
64,900 65,1974 66,611 67,473
69,257 76,171 77,5012 78,3218
79,2408 80,128 81,171 84,171
89,257 91,6454 92,1156 93,738
94,171 95,128 97,731 98,128
102,435 103,3669 104,1500 105,4984
106,1203 107,613 109,433 110,727
115,3433 116,765 117,4348 118,1461
119,2567 120,775 121,128 125,431
134,1077 135,1156 136,257 137,943
139,257 141,214 149,257 150,257
152,300 153,472 154,128 164,1256
165,7708 166,2743 167,811 178,1672
179,6730 180,5803 181,4401 182,677
193,564 194,7654 195,4311 196,768
197,300 198,257 199,257 200,128
201,300 211,257 212,171 213,257
225,3306 226,772 227,257 228,511
241,3033 242,9999 243,2439 244,731
259,128 260,3408 261,511 262,171
##END=
