##TITLE=4,7-Dimethyl-1,10-phenanthroline
##JCAMP-DX=4.24
##DATA TYPE=MASS SPECTRUM
##ORIGIN=NIST Mass Spectrometry Data Center, 1994
##OWNER=NIST Mass Spectrometry Data Center
Collection (C) 2014 copyright by the U.S. Secretary of Commerce
on behalf of the United States of America. All rights reserved.
##CAS REGISTRY NO=3248-05-3
##$NIST MASS SPEC NO=133727
##MOLFORM=C14 H12 N2
##MW=208
##$NIST SOURCE=MSDC
##XUNITS=M/Z
##YUNITS=RELATIVE INTENSITY
##XFACTOR=1
##YFACTOR=1
##FIRSTX=4
##LASTX=210
##FIRSTY=5
##MAXX=210
##MINX=4
##MAXY=9999
##MINY=5
##NPOINTS=106
##PEAK TABLE=(XY..XY)
4,5 14,29 15,47 26,55
27,206 28,253 32,10 37,31
38,96 39,408 40,52 41,45
42,16 50,239 51,399 52,180
53,68 56,15 61,53 62,230
63,533 64,203 65,100 66,20
70,88 71,43 74,193 75,369
76,484 77,479 79,19 83,106
85,36 86,114 87,183 88,190
89,503 90,492 97,111 98,69
99,122 100,105 101,120 102,172
103,462 104,702 110,24 111,52
112,52 113,191 114,212 115,246
116,102 117,46 123,18 124,29
125,84 126,197 127,234 128,140
129,48 130,31 137,64 138,149
139,283 140,406 141,148 142,145
143,279 144,35 149,23 150,122
151,307 152,505 153,216 154,223
155,67 156,29 157,82 164,240
165,173 166,268 167,259 168,332
169,340 170,30 176,43 177,112
178,288 179,271 180,818 181,650
182,341 183,38 190,29 191,124
192,426 193,801 194,93 203,33
205,324 206,528 207,3235 208,9999
209,1521 210,126
##END=
