##TITLE=2,5-Dimethoxybenzyl alcohol
##JCAMP-DX=4.24
##DATA TYPE=MASS SPECTRUM
##ORIGIN=Japan AIST/NIMC Database- Spectrum MS-NW-5890
##OWNER=NIST Mass Spectrometry Data Center
Collection (C) 2014 copyright by the U.S. Secretary of Commerce
on behalf of the United States of America. All rights reserved.
##CAS REGISTRY NO=33524-31-1
##$NIST MASS SPEC NO=235139
##MOLFORM=C9 H12 O3
##MW=168
##$NIST SOURCE=MSDC
##XUNITS=M/Z
##YUNITS=RELATIVE INTENSITY
##XFACTOR=1
##YFACTOR=1
##FIRSTX=14
##LASTX=171
##FIRSTY=20
##MAXX=171
##MINX=14
##MAXY=9999
##MINY=10
##NPOINTS=117
##PEAK TABLE=(XY..XY)
14,20 15,369 18,10 25,10
26,129 27,279 28,219 29,249
30,30 31,189 32,20 33,10
37,60 38,169 39,709 40,119
41,409 42,40 43,169 44,10
45,80 46,10 47,10 49,20
50,279 51,559 52,249 53,449
54,179 55,629 56,60 57,40
59,149 60,10 61,60 62,169
63,469 64,309 65,1739 66,309
67,269 68,50 69,109 70,20
71,20 73,20 74,109 75,99
76,199 77,1019 78,269 79,309
80,80 81,309 82,449 83,40
84,40 85,20 86,20 89,50
90,30 91,239 92,459 93,809
94,479 95,209 96,99 97,209
98,20 103,10 104,10 105,80
106,119 107,779 108,399 109,519
110,1179 111,109 112,20 115,20
119,80 120,60 121,599 122,179
123,259 124,379 125,3679 126,309
127,30 128,10 131,10 133,10
134,30 135,1539 136,599 137,899
138,199 139,1599 140,159 141,10
144,10 147,10 148,20 149,70
150,70 151,549 152,539 153,1729
154,159 155,20 165,60 166,109
167,279 168,9999 169,1029 170,119
171,10
##END=
