##TITLE=2,3-Diphenylindole
##JCAMP-DX=4.24
##DATA TYPE=MASS SPECTRUM
##ORIGIN=NIST Mass Spectrometry Data Center, 1994
##OWNER=NIST Mass Spectrometry Data Center
Collection (C) 2014 copyright by the U.S. Secretary of Commerce
on behalf of the United States of America. All rights reserved.
##CAS REGISTRY NO=3469-20-3
##$NIST MASS SPEC NO=136350
##MOLFORM=C20 H15 N
##MW=269
##$NIST SOURCE=MSDC
##XUNITS=M/Z
##YUNITS=RELATIVE INTENSITY
##XFACTOR=1
##YFACTOR=1
##FIRSTX=18
##LASTX=271
##FIRSTY=67
##MAXX=271
##MINX=18
##MAXY=9999
##MINY=23
##NPOINTS=109
##PEAK TABLE=(XY..XY)
18,67 26,25 27,195 38,80
39,469 40,59 41,36 50,232
51,531 52,143 62,166 63,395
64,88 65,96 74,112 75,202
76,205 77,279 80,31 82,61
83,23 86,119 87,231 88,163
89,248 94,173 96,46 98,87
99,118 100,165 101,91 102,96
103,41 104,50 107,391 109,48
110,49 111,63 112,108 113,269
114,195 115,211 119,298 120,463
121,624 125,69 126,439 127,966
133,881 134,1379 137,110 138,76
139,297 140,91 150,92 151,85
152,70 162,80 163,530 164,466
165,1761 166,270 174,30 175,42
176,88 177,58 178,39 187,104
188,85 189,143 190,240 191,79
200,90 201,69 202,83 203,52
204,56 211,52 212,41 213,143
214,123 215,117 216,57 225,43
226,124 227,97 228,55 237,141
238,166 239,577 240,334 241,494
242,175 250,45 251,90 252,147
253,147 254,893 255,178 262,33
263,44 264,292 265,465 266,846
267,3036 268,3505 269,9999 270,2175
271,246
##END=
