##TITLE=1,1'-Biphenyl, 2,2',5-trichloro-
##JCAMP-DX=4.24
##DATA TYPE=MASS SPECTRUM
##ORIGIN=T.L.Hayes, Battelle Columbus Laboratories, Columbus, OH 43221
##OWNER=NIST Mass Spectrometry Data Center
Collection (C) 2014 copyright by the U.S. Secretary of Commerce
on behalf of the United States of America. All rights reserved.
##CAS REGISTRY NO=37680-65-2
##$NIST MASS SPEC NO=80837
##MOLFORM=C12 H7 Cl3
##MW=256
##$NIST SOURCE=MSDC
##XUNITS=M/Z
##YUNITS=RELATIVE INTENSITY
##XFACTOR=1
##YFACTOR=1
##FIRSTX=35
##LASTX=263
##FIRSTY=59
##MAXX=263
##MINX=35
##MAXY=9999
##MINY=3
##NPOINTS=171
##PEAK TABLE=(XY..XY)
35,59 36,43 37,116 38,169
39,217 40,14 41,6 43,7
44,18 47,43 48,24 49,166
50,460 51,297 52,35 55,22
56,8 60,121 61,259 62,385
63,252 64,21 67,19 68,4
69,11 71,7 72,81 73,369
74,849 75,1246 76,221 77,89
78,3 79,41 80,141 81,46
83,33 84,182 85,316 86,432
87,325 88,53 89,13 91,13
92,314 93,1275 94,486 95,32
96,66 97,293 98,676 99,654
100,167 101,180 102,36 103,15
105,12 107,28 108,128 109,304
110,1154 111,1054 112,227 113,181
114,47 115,32 116,28 117,18
118,9 119,11 120,77 121,150
122,294 123,541 124,240 125,444
126,188 127,42 128,425 129,449
130,173 131,36 132,46 133,95
134,76 135,179 136,208 137,108
138,94 139,20 141,5 142,7
143,8 144,34 145,54 146,89
147,185 148,150 149,785 150,3959
151,3227 152,386 153,52 156,5
157,27 158,29 159,165 160,363
161,123 162,122 163,26 168,23
169,24 170,113 171,50 172,94
173,50 174,25 175,8 178,6
179,4 180,18 181,18 182,31
183,57 184,259 185,532 186,9999
187,1810 188,3908 189,506 190,44
193,8 194,95 195,37 196,88
197,24 198,34 199,7 204,15
205,6 206,23 207,46 208,6
209,23 210,6 211,10 218,10
219,11 220,359 221,4113 222,759
223,2558 224,401 225,445 226,68
227,15 230,6 232,8 233,8
244,7 248,7 249,4 256,4974
257,710 258,4740 259,675 260,1555
261,223 262,187 263,31
##END=
