##TITLE=3,4,5-Trimethoxybenzyl chloride
##JCAMP-DX=4.24
##DATA TYPE=MASS SPECTRUM
##ORIGIN=NIST Mass Spectrometry Data Center, 1994
##OWNER=NIST Mass Spectrometry Data Center
Collection (C) 2014 copyright by the U.S. Secretary of Commerce
on behalf of the United States of America. All rights reserved.
##CAS REGISTRY NO=3840-30-0
##$NIST MASS SPEC NO=134787
##MOLFORM=C10 H13 Cl O3
##MW=216
##$NIST SOURCE=MSDC
##XUNITS=M/Z
##YUNITS=RELATIVE INTENSITY
##XFACTOR=1
##YFACTOR=1
##FIRSTX=15
##LASTX=219
##FIRSTY=2412
##MAXX=219
##MINX=15
##MAXY=9999
##MINY=26
##NPOINTS=139
##PEAK TABLE=(XY..XY)
15,2412 16,75 18,40 26,183
27,347 28,272 29,625 30,143
31,129 35,80 36,94 37,194
38,573 39,1485 40,110 41,305
42,94 43,216 45,155 49,284
50,957 51,2207 52,1743 53,1279
54,119 55,154 56,34 57,69
59,95 60,27 61,164 62,412
63,1058 64,695 65,952 66,462
67,398 68,75 69,246 73,344
74,222 75,394 76,289 77,1534
78,571 79,970 80,760 81,142
82,35 85,87 86,169 87,772
88,95 89,697 90,472 91,538
92,425 93,337 94,200 95,880
96,82 97,37 98,35 99,344
100,75 101,127 102,44 105,486
106,333 107,479 108,310 109,325
110,90 111,37 112,67 113,198
114,55 115,234 116,28 117,53
118,66 119,76 120,382 121,519
122,192 123,585 124,210 125,158
126,39 127,87 128,60 129,177
130,97 131,50 133,31 134,90
135,339 136,702 137,1189 138,1497
139,180 140,49 141,136 142,163
143,414 144,84 145,121 148,1411
149,208 150,76 151,372 152,69
155,97 156,78 158,504 159,53
160,149 165,353 166,91 167,68
170,46 171,36 173,390 174,49
175,117 179,27 181,9999 182,1212
183,127 184,34 185,26 199,30
201,720 202,86 203,258 216,2242
217,284 218,723 219,80
##END=
