##TITLE=1,1'-Biphenyl, 2,2',3,3',4,5,6'-heptachloro-
##JCAMP-DX=4.24
##DATA TYPE=MASS SPECTRUM
##ORIGIN=Organic Synthesis Lab, MSU, Moscow.TRC 1213
##OWNER=NIST Mass Spectrometry Data Center
Collection (C) 2014 copyright by the U.S. Secretary of Commerce
on behalf of the United States of America. All rights reserved.
##CAS REGISTRY NO=38411-25-5
##$NIST MASS SPEC NO=326598
##MOLFORM=C12 H3 Cl7
##MW=392
##$NIST SOURCE=MSDC
##XUNITS=M/Z
##YUNITS=RELATIVE INTENSITY
##XFACTOR=1
##YFACTOR=1
##FIRSTX=44
##LASTX=402
##FIRSTY=546
##MAXX=402
##MINX=44
##MAXY=9999
##MINY=93
##NPOINTS=143
##PEAK TABLE=(XY..XY)
44,546 47,118 49,162 50,181
60,230 61,701 62,261 67,94
71,123 72,431 73,1502 74,834
78,299 83,206 84,743 85,707
86,442 87,106 90,558 94,93
96,660 97,764 98,907 99,188
106,130 107,622 108,1755 109,1506
110,853 111,203 114,193 115,339
118,281 119,215 120,658 121,637
122,701 123,179 126,2578 127,2434
128,940 129,123 130,139 131,525
132,932 133,473 134,293 135,173
142,248 143,1630 144,2268 145,1274
146,1143 147,416 155,121 156,378
157,282 158,153 161,3357 162,5672
163,3525 164,1332 165,261 166,114
167,305 168,239 169,220 170,106
178,245 179,680 180,841 181,770
182,1064 183,290 184,360 192,303
194,145 196,907 197,1942 198,1818
199,1061 200,342 201,105 203,151
204,145 205,160 207,130 215,176
216,774 217,821 218,506 219,452
229,118 238,133 239,141 240,181
242,112 251,352 252,2962 253,610
254,3152 255,537 256,1010 257,166
258,178 262,138 264,147 286,443
287,801 288,674 289,870 290,378
291,399 292,163 293,105 322,5061
323,773 324,7728 325,1058 326,5875
327,619 328,1839 329,202 330,270
357,1594 358,314 359,3449 360,569
361,2994 362,466 363,1320 364,150
365,326 392,4150 394,9999 395,1457
396,8520 397,1365 398,5431 399,724
400,1751 401,220 402,379
##END=
