##TITLE=1,1'-Biphenyl, 2,2',6-trichloro-
##JCAMP-DX=4.24
##DATA TYPE=MASS SPECTRUM
##ORIGIN=Organic Synthesis Lab, MSU, Moscow.TRC 1368
##OWNER=NIST Mass Spectrometry Data Center
Collection (C) 2014 copyright by the U.S. Secretary of Commerce
on behalf of the United States of America. All rights reserved.
##CAS REGISTRY NO=38444-73-4
##$NIST MASS SPEC NO=326716
##MOLFORM=C12 H7 Cl3
##MW=256
##$NIST SOURCE=MSDC
##XUNITS=M/Z
##YUNITS=RELATIVE INTENSITY
##XFACTOR=1
##YFACTOR=1
##FIRSTX=41
##LASTX=262
##FIRSTY=84
##MAXX=262
##MINX=41
##MAXY=9999
##MINY=47
##NPOINTS=98
##PEAK TABLE=(XY..XY)
41,84 44,197 47,123 48,47
49,307 50,1033 51,885 52,92
57,50 60,166 61,689 62,818
63,605 64,60 67,95 68,63
72,93 73,733 74,1904 75,3310
77,154 79,134 80,419 81,132
84,280 85,647 86,712 87,568
88,91 92,873 93,2404 94,645
96,77 97,476 98,1014 99,1053
100,253 101,208 108,188 109,337
110,2076 111,1503 113,193 120,88
121,130 122,338 123,576 124,311
125,430 126,158 128,590 129,493
130,246 131,61 132,94 133,83
134,51 135,192 136,148 137,147
146,66 147,198 148,122 149,742
150,3052 151,2622 152,384 159,171
160,243 161,91 162,90 170,86
171,78 172,89 173,52 183,94
184,202 185,497 186,9549 187,1471
188,3052 189,407 194,76 196,69
220,428 221,6009 222,1094 223,3660
224,565 225,683 226,97 256,9892
257,1334 258,9999 259,1363 260,3161
261,442 262,379
##END=
