##TITLE=3-Chloro-4-methylbenzyl alcohol
##JCAMP-DX=4.24
##DATA TYPE=MASS SPECTRUM
##ORIGIN=NIST Mass Spectrometry Data Center, 1994
##OWNER=NIST Mass Spectrometry Data Center
Collection (C) 2014 copyright by the U.S. Secretary of Commerce
on behalf of the United States of America. All rights reserved.
##CAS REGISTRY NO=39652-32-9
##$NIST MASS SPEC NO=135378
##MOLFORM=C8 H9 Cl O
##MW=156
##$NIST SOURCE=MSDC
##XUNITS=M/Z
##YUNITS=RELATIVE INTENSITY
##XFACTOR=1
##YFACTOR=1
##FIRSTX=12
##LASTX=159
##FIRSTY=42
##MAXX=159
##MINX=12
##MAXY=9999
##MINY=30
##NPOINTS=106
##PEAK TABLE=(XY..XY)
12,42 14,106 15,438 16,40
17,61 18,83 19,72 26,334
27,1019 28,138 29,1587 30,210
31,1061 35,69 36,105 37,360
38,842 39,2850 40,345 41,442
42,88 43,273 44,141 45,252
46,150 47,93 48,69 49,325
50,1573 51,2396 52,428 53,421
54,48 55,187 59,334 60,426
61,535 62,1332 63,3021 64,611
65,2535 66,262 67,58 68,36
72,108 73,696 74,661 75,989
76,36 77,6894 78,981 79,93
84,129 85,261 86,439 87,429
88,93 89,2325 90,36 91,9999
92,1173 93,6399 94,505 96,37
97,135 98,118 99,708 100,98
101,319 102,362 103,1152 104,259
105,93 111,222 112,209 113,1366
114,143 115,439 116,30 119,766
120,640 121,4629 122,454 123,86
124,30 125,1167 126,30 127,2102
128,183 129,594 130,63 137,39
138,205 139,758 140,39 141,1954
142,215 143,635 144,62 153,416
154,182 155,814 156,4968 157,674
158,1767 159,152
##END=
