##TITLE=Trichloroaetic acid isopropyl ester
##JCAMP-DX=4.24
##DATA TYPE=MASS SPECTRUM
##ORIGIN=V.Zaikin,Topchiev Inst.Petrochem.Synth.,Moscow
##OWNER=NIST Mass Spectrometry Data Center
Collection (C) 2014 copyright by the U.S. Secretary of Commerce
on behalf of the United States of America. All rights reserved.
##CAS REGISTRY NO=3974-99-0
##$NIST MASS SPEC NO=282349
##MOLFORM=C5 H7 Cl3 O2
##MW=204
##$NIST SOURCE=MSDC
##XUNITS=M/Z
##YUNITS=RELATIVE INTENSITY
##XFACTOR=1
##YFACTOR=1
##FIRSTX=25
##LASTX=207
##FIRSTY=20
##MAXX=207
##MINX=25
##MAXY=9999
##MINY=10
##NPOINTS=112
##PEAK TABLE=(XY..XY)
25,20 26,140 27,1081 28,90
29,150 31,30 35,140 36,731
37,60 38,240 39,781 40,190
41,2302 42,681 43,9999 44,80
45,90 47,410 48,40 49,140
50,110 51,160 52,280 53,70
58,30 59,1151 60,40 61,30
62,40 63,150 64,30 65,120
66,10 73,10 74,10 75,20
76,30 77,110 78,80 79,540
80,40 81,10 82,1021 83,290
84,661 85,200 86,110 87,30
89,80 90,30 91,1251 92,100
93,20 97,20 99,80 101,50
107,50 109,20 110,711 111,90
112,460 113,60 114,80 115,20
117,6836 118,70 119,6566 120,60
121,1742 122,20 123,180 125,40
126,280 127,811 128,100 129,520
130,30 131,90 141,20 143,10
145,200 146,20 147,190 148,20
149,60 154,10 155,60 156,10
157,40 161,851 162,30 163,811
164,30 165,260 166,10 167,30
169,220 170,10 171,140 173,20
175,20 177,20 189,2712 190,120
191,2622 192,120 193,771 194,40
195,80 203,60 205,60 207,20
##END=
