##TITLE=Naphthalene, 1,1'-(1,10-decanediyl)bis-
##JCAMP-DX=4.24
##DATA TYPE=MASS SPECTRUM
##ORIGIN=GULF R. ' D. CO., PITTSBURGH, PA, USA
##OWNER=NIST Mass Spectrometry Data Center
Collection (C) 2014 copyright by the U.S. Secretary of Commerce
on behalf of the United States of America. All rights reserved.
##CAS REGISTRY NO=40339-27-3
##$NIST MASS SPEC NO=34805
##MOLFORM=C30 H34
##MW=394
##$NIST SOURCE=MSDC
##XUNITS=M/Z
##YUNITS=RELATIVE INTENSITY
##XFACTOR=1
##YFACTOR=1
##FIRSTX=37
##LASTX=397
##FIRSTY=5
##MAXX=397
##MINX=37
##MAXY=9999
##MINY=4
##NPOINTS=147
##PEAK TABLE=(XY..XY)
37,5 38,8 39,90 40,31
41,308 42,30 43,100 44,38
50,19 51,40 52,11 53,33
54,13 55,198 56,23 57,30
62,13 63,52 64,8 65,25
67,22 68,5 69,36 70,5
71,5 74,16 75,28 76,24
77,55 78,13 79,8 81,13
82,6 83,16 86,8 87,19
88,13 89,44 90,6 91,60
92,8 95,4 98,8 99,8
100,8 101,30 102,42 103,12
104,5 105,7 113,25 114,38
115,1082 116,116 117,12 125,11
126,59 127,211 128,461 129,239
130,38 131,13 138,30 139,284
140,162 141,9999 142,2139 143,203
144,22 150,19 151,77 152,343
153,595 154,730 155,568 156,98
157,14 163,24 164,30 165,287
166,130 167,595 168,141 169,92
170,27 171,5 176,11 177,12
178,66 179,88 180,42 181,130
182,39 183,57 184,12 189,14
190,8 191,38 192,16 193,19
194,13 195,17 196,23 197,182
198,13 202,13 203,11 204,8
205,8 206,8 207,9 210,11
212,7 215,19 216,8 217,7
221,5 224,8 226,5 229,5
238,16 239,11 240,9 250,16
252,190 253,46 254,11 265,19
266,24 267,51 268,16 278,5
279,8 280,7 281,8 326,8
327,7 328,11 378,9 389,22
390,33 391,19 392,389 394,5948
395,1959 396,319 397,35
##END=
