##TITLE=Dipropetryn
##JCAMP-DX=4.24
##DATA TYPE=MASS SPECTRUM
##ORIGIN=NIST Mass Spectrometry Data Center, 1998.
##OWNER=NIST Mass Spectrometry Data Center
Collection (C) 2014 copyright by the U.S. Secretary of Commerce
on behalf of the United States of America. All rights reserved.
##CAS REGISTRY NO=4147-51-7
##$NIST MASS SPEC NO=291684
##MOLFORM=C11 H21 N5 S
##MW=255
##$NIST SOURCE=MSDC
##XUNITS=M/Z
##YUNITS=RELATIVE INTENSITY
##XFACTOR=1
##YFACTOR=1
##FIRSTX=14
##LASTX=258
##FIRSTY=10
##MAXX=258
##MINX=14
##MAXY=9999
##MINY=10
##NPOINTS=187
##PEAK TABLE=(XY..XY)
14,10 15,70 26,60 27,1080
28,450 29,1070 30,100 34,10
35,70 37,10 38,20 39,420
40,130 41,2270 42,1800 43,5919
44,1890 45,250 46,60 47,60
48,10 49,10 52,20 53,150
54,130 55,220 56,320 57,350
58,6489 59,500 60,1120 61,180
62,90 63,30 66,20 67,230
68,4200 69,2930 70,430 71,120
72,60 73,40 74,40 75,40
76,40 77,50 78,20 79,20
80,40 81,70 82,140 83,1230
84,330 85,2600 86,390 87,140
88,380 89,70 90,30 91,10
92,10 93,480 94,650 95,440
96,210 97,120 98,320 100,290
101,80 102,980 103,120 104,70
105,130 107,20 108,280 109,210
110,1590 111,1200 112,2250 115,50
116,20 117,20 120,470 121,90
122,50 123,180 124,60 125,400
126,180 127,1120 128,1430 129,260
130,400 131,80 132,20 134,20
135,270 136,360 137,560 138,990
139,140 140,80 141,60 142,710
143,910 144,430 145,80 146,20
148,10 149,20 150,90 151,70
152,3640 153,850 154,430 155,250
156,400 157,110 158,30 161,20
162,20 163,20 164,140 165,230
166,30 167,90 168,190 169,2220
170,1270 171,540 172,110 173,20
175,10 177,30 178,110 179,80
180,1320 181,160 182,110 183,110
184,3950 185,1370 186,290 187,60
190,10 192,40 193,50 194,150
195,1750 196,1060 197,220 198,2440
199,780 200,170 201,30 206,60
207,20 208,10 210,160 211,80
212,1100 213,1280 214,180 215,60
220,20 221,30 222,2780 223,390
224,120 225,30 226,460 227,1310
228,180 229,70 238,70 239,40
240,4670 241,640 242,240 243,30
252,30 253,30 254,680 255,9999
256,1470 257,550 258,70
##END=
