##TITLE=Naphthalene, 6-(1,1-dimethylethyl)-1,2,3,4-tetrahydro-
##JCAMP-DX=4.24
##DATA TYPE=MASS SPECTRUM
##OWNER=NIST Mass Spectrometry Data Center
Collection (C) 2014 copyright by the U.S. Secretary of Commerce
on behalf of the United States of America. All rights reserved.
##CAS REGISTRY NO=42044-26-8
##$NIST MASS SPEC NO=8045
##MOLFORM=C14 H20
##MW=188
##$NIST SOURCE=MSDC
##XUNITS=M/Z
##YUNITS=RELATIVE INTENSITY
##XFACTOR=1
##YFACTOR=1
##FIRSTX=12
##LASTX=188
##FIRSTY=10
##MAXX=188
##MINX=12
##MAXY=9999
##MINY=10
##NPOINTS=122
##PEAK TABLE=(XY..XY)
12,10 13,10 14,20 15,270
16,10 26,30 27,330 28,130
29,360 30,10 37,10 38,20
39,380 40,30 41,661 42,10
43,120 44,10 50,50 51,210
52,50 53,150 54,10 55,130
56,10 57,290 58,30 59,10
62,30 63,140 64,140 65,190
66,10 67,40 68,10 69,20
70,60 71,150 72,50 74,20
75,50 76,100 77,260 78,110
79,150 80,10 81,10 82,10
83,20 85,10 88,10 89,50
90,20 91,1031 92,10 93,10
94,10 98,10 99,20 101,40
102,120 103,160 104,160 105,170
106,10 107,10 111,10 113,20
114,30 115,701 116,250 117,350
118,30 119,30 120,10 121,10
125,10 126,40 127,240 128,631
129,550 130,230 131,1501 132,180
133,50 134,10 139,50 140,20
141,190 142,100 143,120 144,90
145,480 146,10 147,10 150,10
151,20 152,50 153,40 154,20
155,50 156,20 157,140 158,20
159,80 160,20 161,10 163,10
165,20 166,10 167,10 168,10
169,20 170,20 171,120 172,100
173,9999 176,10 184,10 186,30
187,20 188,1932
##END=
