##TITLE=Naphthalene, 2-(1,1-dimethylethyl)-1,2,3,4-tetrahydro-
##JCAMP-DX=4.24
##DATA TYPE=MASS SPECTRUM
##ORIGIN=CONTINENTAL OIL CO., PONCA CITY, OKLA., USA
##OWNER=NIST Mass Spectrometry Data Center
Collection (C) 2014 copyright by the U.S. Secretary of Commerce
on behalf of the United States of America. All rights reserved.
##CAS REGISTRY NO=42044-22-4
##$NIST MASS SPEC NO=39307
##MOLFORM=C14 H20
##MW=188
##$NIST SOURCE=MSDC
##XUNITS=M/Z
##YUNITS=RELATIVE INTENSITY
##XFACTOR=1
##YFACTOR=1
##FIRSTX=25
##LASTX=190
##FIRSTY=7
##MAXX=190
##MINX=25
##MAXY=9999
##MINY=7
##NPOINTS=135
##PEAK TABLE=(XY..XY)
25,7 26,63 27,1000 28,256
29,1628 30,45 36,7 37,18
38,70 39,1045 40,149 41,2192
42,119 43,471 44,25 49,10
50,153 51,500 52,163 53,404
54,43 55,275 56,97 57,6409
58,313 61,14 62,65 63,325
64,171 65,336 66,40 67,78
68,20 69,100 70,57 71,85
72,19 74,34 75,104 76,149
77,612 78,483 79,139 80,22
81,61 82,63 83,327 84,36
85,37 86,22 87,68 88,10
90,13 91,2363 92,231 93,46
94,14 95,38 96,16 97,28
98,26 99,22 100,18 101,97
102,366 103,855 104,3477 105,618
106,140 107,23 108,11 109,22
110,9 111,18 112,47 113,22
114,69 115,1965 116,1139 117,2192
118,586 119,90 120,14 121,9
123,22 124,12 125,39 126,114
127,651 128,1588 129,2021 130,2865
131,9999 132,7755 133,808 134,45
135,22 136,55 137,61 138,31
139,50 140,24 141,198 142,116
143,133 144,146 145,659 146,115
147,19 148,9 150,10 151,26
152,60 153,47 154,19 155,38
156,18 157,51 158,14 159,19
165,16 166,7 167,7 169,10
171,35 172,15 173,286 174,55
175,9 179,13 186,20 187,17
188,4819 189,751 190,59
##END=
