##TITLE=2-Chloro-6-ethoxypyridine
##JCAMP-DX=4.24
##DATA TYPE=MASS SPECTRUM
##ORIGIN=Japan AIST/NIMC Database- Spectrum MS-NW-9416
##OWNER=NIST Mass Spectrometry Data Center
Collection (C) 2014 copyright by the U.S. Secretary of Commerce
on behalf of the United States of America. All rights reserved.
##CAS REGISTRY NO=42144-78-5
##$NIST MASS SPEC NO=236882
##MOLFORM=C7 H8 Cl N O
##MW=157
##$NIST SOURCE=MSDC
##XUNITS=M/Z
##YUNITS=RELATIVE INTENSITY
##XFACTOR=1
##YFACTOR=1
##FIRSTX=14
##LASTX=160
##FIRSTY=40
##MAXX=160
##MINX=14
##MAXY=9999
##MINY=10
##NPOINTS=101
##PEAK TABLE=(XY..XY)
14,40 15,119 25,20 26,409
27,1699 28,429 29,1739 30,40
35,20 36,149 37,399 38,1279
39,3119 40,259 41,139 42,70
43,149 44,20 45,30 46,20
47,70 48,20 49,199 50,519
51,469 52,219 53,80 54,30
55,30 60,80 61,129 62,209
63,189 64,709 65,1039 66,3239
67,259 68,20 72,20 73,229
74,269 75,249 76,1479 77,249
78,1389 79,90 80,10 82,10
83,119 84,30 85,279 86,119
87,109 88,40 89,10 91,10
92,109 93,1009 94,9999 95,659
96,50 99,10 100,329 101,4999
102,529 103,1609 104,139 106,60
107,10 111,129 112,1089 113,4489
114,989 115,1459 116,209 117,10
120,30 122,459 123,60 124,99
125,10 127,10 128,70 129,4629
130,379 131,1489 132,119 138,40
139,30 140,60 141,10 142,7459
143,529 144,2379 145,169 146,10
156,369 157,3819 158,489 159,1229
160,119
##END=
