##TITLE=9,9-Bis(2-cyanoethyl)fluorene
##JCAMP-DX=4.24
##DATA TYPE=MASS SPECTRUM
##ORIGIN=NIST Mass Spectrometry Data Center, 1994
##OWNER=NIST Mass Spectrometry Data Center
Collection (C) 2014 copyright by the U.S. Secretary of Commerce
on behalf of the United States of America. All rights reserved.
##CAS REGISTRY NO=4425-97-2
##$NIST MASS SPEC NO=135594
##MOLFORM=C19 H16 N2
##MW=272
##$NIST SOURCE=MSDC
##XUNITS=M/Z
##YUNITS=RELATIVE INTENSITY
##XFACTOR=1
##YFACTOR=1
##FIRSTX=38
##LASTX=274
##FIRSTY=41
##MAXX=274
##MINX=38
##MAXY=9999
##MINY=14
##NPOINTS=105
##PEAK TABLE=(XY..XY)
38,41 39,281 40,202 41,182
42,19 50,149 51,236 52,184
53,47 54,375 55,68 61,21
62,116 63,391 64,49 65,41
70,117 74,57 75,308 76,774
77,149 78,26 82,194 83,408
86,98 87,212 88,416 89,603
94,180 95,287 96,163 98,87
99,98 100,113 101,127 102,108
103,18 107,21 109,47 110,41
111,63 112,23 113,119 114,49
115,148 123,37 124,23 125,54
126,169 127,77 128,91 129,15
136,20 137,79 138,51 139,243
140,47 149,88 150,469 151,870
152,1489 153,193 161,56 162,118
163,418 164,259 165,702 166,108
174,137 176,1747 178,7626 179,1160
180,89 187,178 188,222 189,882
190,625 191,3421 192,518 193,55
200,52 201,87 202,141 203,138
204,56 205,21 212,42 213,29
214,152 215,73 216,192 217,21
218,9999 219,1910 220,168 227,26
228,19 229,14 230,50 231,162
232,116 233,22 272,2792 273,634
274,68
##END=
