##TITLE=Carotol
##JCAMP-DX=4.24
##DATA TYPE=MASS SPECTRUM
##ORIGIN=R RYHAGE MS-LAB KAROLINSKA INSTITUTET STOCKHOLM SWEDEN
##OWNER=NIST Mass Spectrometry Data Center
Collection (C) 2014 copyright by the U.S. Secretary of Commerce
on behalf of the United States of America. All rights reserved.
##CAS REGISTRY NO=465-28-1
##$NIST MASS SPEC NO=42544
##MOLFORM=C15 H26 O
##MW=222
##$NIST SOURCE=MSDC
##XUNITS=M/Z
##YUNITS=RELATIVE INTENSITY
##XFACTOR=1
##YFACTOR=1
##FIRSTX=17
##LASTX=205
##FIRSTY=100
##MAXX=205
##MINX=17
##MAXY=9999
##MINY=100
##NPOINTS=89
##PEAK TABLE=(XY..XY)
17,100 18,580 27,330 29,610
39,400 40,140 41,2340 42,290
43,2680 44,120 45,120 53,660
54,140 55,2040 56,360 57,520
59,130 65,260 66,140 67,1340
68,850 69,3230 70,460 71,610
72,150 77,730 78,180 79,1280
80,410 81,2540 82,900 83,950
84,2340 85,560 91,1090 92,360
93,2090 94,1720 95,2240 96,980
97,2490 98,370 99,110 105,2440
106,940 107,2190 108,670 109,1990
110,1580 111,760 112,150 117,170
119,2680 120,1330 121,1700 122,590
123,2630 124,580 125,160 131,160
133,750 134,720 135,640 136,1640
137,1820 138,1630 139,1000 140,810
141,120 147,370 148,340 149,260
151,1270 152,260 153,190 159,180
160,210 161,9999 162,1510 163,180
165,100 175,170 176,110 179,1060
180,180 189,780 190,130 204,3730
205,690
##END=
