##TITLE=Veratraman-11-one, 17,23-epoxy-3-hydroxy-, (3.beta.,23.beta.)-
##JCAMP-DX=4.24
##DATA TYPE=MASS SPECTRUM
##ORIGIN=H. Fales, LC, NHLBI, NIH, Bethesda, MD 20892
##OWNER=NIST Mass Spectrometry Data Center
Collection (C) 2014 copyright by the U.S. Secretary of Commerce
on behalf of the United States of America. All rights reserved.
##CAS REGISTRY NO=469-59-0
##$NIST MASS SPEC NO=131050
##MOLFORM=C27 H39 N O3
##MW=425
##$NIST SOURCE=MSDC
##XUNITS=M/Z
##YUNITS=RELATIVE INTENSITY
##XFACTOR=1
##YFACTOR=1
##FIRSTX=41
##LASTX=428
##FIRSTY=1284
##MAXX=428
##MINX=41
##MAXY=9999
##MINY=20
##NPOINTS=231
##PEAK TABLE=(XY..XY)
41,1284 42,383 43,1007 44,238
45,56 51,21 53,327 54,189
55,1079 56,385 57,1909 58,217
59,23 65,246 66,143 67,746
68,2270 69,457 70,1021 71,294
72,144 77,644 78,193 79,1020
80,330 81,658 82,747 83,1892
84,2383 85,557 86,66 91,1804
92,300 93,627 94,322 95,353
96,692 97,908 98,215 99,22
100,27 102,71 103,241 104,124
105,1417 106,298 107,943 108,619
109,416 110,9999 111,832 112,1488
113,3170 114,2307 115,562 116,239
117,640 118,205 119,670 120,256
121,499 122,308 123,211 124,6158
125,7170 126,1818 127,243 128,314
129,487 130,319 131,783 132,285
133,431 134,225 135,236 136,134
137,129 138,51 139,97 140,479
141,315 142,228 143,310 144,184
145,824 146,272 147,392 148,245
149,327 150,116 151,78 152,138
153,147 154,123 155,205 156,107
157,252 158,149 159,292 160,143
161,267 162,180 163,157 164,121
165,194 166,96 167,282 168,128
169,188 170,103 171,217 172,120
173,205 174,191 175,763 176,265
177,101 178,247 179,410 180,263
181,156 182,74 183,147 184,66
185,176 186,130 187,246 188,220
189,164 190,116 191,96 192,78
193,93 194,70 195,113 196,25
197,114 198,67 199,116 200,84
201,86 202,84 203,74 204,53
205,105 206,26 207,118 209,106
210,42 211,109 212,39 213,76
214,45 215,94 216,23 218,111
219,39 221,75 222,20 223,86
225,101 226,43 227,71 228,30
229,45 232,123 233,636 234,151
235,70 237,70 239,91 240,20
241,75 243,113 247,125 251,64
253,26 255,109 256,44 257,20
261,22 265,61 267,72 269,36
271,25 277,21 279,76 284,84
285,79 286,160 295,95 297,97
299,220 300,108 302,418 303,91
309,94 312,176 313,334 314,1886
315,418 316,69 323,40 324,165
325,90 326,139 328,70 340,97
341,110 342,95 354,162 355,60
368,42 369,131 382,115 392,260
393,76 396,1744 397,542 398,98
406,21 407,199 408,123 410,1376
411,421 412,99 424,178 425,5988
426,2042 427,405 428,39
##END=
