##TITLE=2-Naphthalenemethanol, decahydro-.alpha.,.alpha.,4a-trimethyl-8-methylene-, [2R-(2.alpha.,4a.alpha.,8a.beta.)]-
##JCAMP-DX=4.24
##DATA TYPE=MASS SPECTRUM
##ORIGIN=NIST Mass Spectrometry Data Center
##OWNER=NIST Mass Spectrometry Data Center
Collection (C) 2014 copyright by the U.S. Secretary of Commerce
on behalf of the United States of America. All rights reserved.
##CAS REGISTRY NO=473-15-4
##$NIST MASS SPEC NO=334000
##MOLFORM=C15 H26 O
##MW=222
##$NIST SOURCE=MSDC
##XUNITS=M/Z
##YUNITS=RELATIVE INTENSITY
##XFACTOR=1
##YFACTOR=1
##FIRSTX=15
##LASTX=223
##FIRSTY=20
##MAXX=223
##MINX=15
##MAXY=9999
##MINY=10
##NPOINTS=132
##PEAK TABLE=(XY..XY)
15,20 26,10 27,200 28,30
29,330 31,380 39,530 40,130
41,1732 42,130 43,1732 44,40
45,160 50,30 51,160 52,110
53,831 54,170 55,1471 56,120
57,170 58,180 59,9999 60,330
61,30 62,10 63,50 64,20
65,440 66,190 67,1692 68,470
69,520 70,40 71,310 72,30
73,20 74,10 75,20 76,20
77,1051 78,280 79,2002 80,510
81,1872 82,1321 83,500 84,50
85,30 87,10 89,30 90,10
91,1752 92,350 93,2032 94,781
95,1722 96,581 97,270 98,20
99,10 102,20 103,110 104,60
105,1371 106,300 107,1541 108,2512
109,2302 110,380 111,60 112,10
115,120 116,40 117,160 118,90
119,591 120,200 121,1521 122,1782
123,1511 124,140 125,140 126,20
127,20 128,50 129,40 130,30
131,80 132,30 133,571 134,140
135,951 136,230 137,90 138,10
139,10 141,20 142,10 143,10
144,10 145,90 146,20 147,370
148,220 149,4664 150,751 151,80
152,10 159,20 160,20 161,510
162,160 163,150 164,2082 165,350
166,30 173,10 175,50 176,30
177,10 189,490 190,80 191,10
203,10 204,260 205,50 206,10
207,110 208,20 222,120 223,20
##END=
