##TITLE=Benzeneethanamine,3,4,5-trimethoxy-N-methyl-
##JCAMP-DX=4.24
##DATA TYPE=MASS SPECTRUM
##ORIGIN=A. Brossi, LC, NIDDK, NIH, Bethesda, MD 20892
##OWNER=NIST Mass Spectrometry Data Center
Collection (C) 2014 copyright by the U.S. Secretary of Commerce
on behalf of the United States of America. All rights reserved.
##CAS REGISTRY NO=4838-96-4
##$NIST MASS SPEC NO=117582
##MOLFORM=C12 H19 N O3
##MW=225
##$NIST SOURCE=MSDC
##XUNITS=M/Z
##YUNITS=RELATIVE INTENSITY
##XFACTOR=1
##YFACTOR=1
##FIRSTX=42
##LASTX=227
##FIRSTY=584
##MAXX=227
##MINX=42
##MAXY=9999
##MINY=4
##NPOINTS=143
##PEAK TABLE=(XY..XY)
42,584 43,114 44,9999 45,288
46,7 47,44 49,4 50,71
51,166 52,222 53,185 54,31
55,70 56,54 57,72 58,158
59,22 60,15 61,10 62,29
63,106 64,107 65,224 66,129
67,83 68,32 69,54 70,16
71,16 72,16 73,15 74,20
75,46 76,64 77,251 78,172
79,173 80,143 81,65 82,30
83,24 84,16 85,11 86,15
87,11 88,10 89,82 90,94
91,141 92,92 93,98 94,83
95,137 96,34 97,25 98,5
99,7 100,4 102,17 103,33
104,43 105,96 106,94 107,173
108,66 109,88 110,29 111,16
115,5 116,20 117,19 118,30
119,54 120,76 121,126 122,82
123,98 124,70 125,35 126,5
127,5 129,5 130,5 131,6
132,14 133,40 134,43 135,60
136,208 137,156 138,77 139,186
140,22 146,15 147,17 148,243
149,66 150,37 151,273 152,73
153,60 154,22 160,6 161,19
162,17 163,21 164,33 165,71
166,40 167,1034 168,127 169,24
176,12 177,13 178,39 179,64
180,34 181,664 182,5512 183,574
184,62 190,11 192,14 193,23
194,94 195,70 196,21 197,10
198,32 205,21 206,19 207,6
208,24 209,12 211,6 212,6
220,5 222,14 223,25 224,23
225,230 226,52 227,6
##END=
