##TITLE=.alpha.-Isolupanine
##JCAMP-DX=4.24
##DATA TYPE=MASS SPECTRUM
##ORIGIN=Benaiche Ghania, Extraction and GC/MS Analysis of major Alkaloids found in the Family of Fabaceae, University of Msila, 2007
##OWNER=NIST Mass Spectrometry Data Center
Collection (C) 2014 copyright by the U.S. Secretary of Commerce
on behalf of the United States of America. All rights reserved.
##CAS REGISTRY NO=486-87-3
##$NIST MASS SPEC NO=383544
##MOLFORM=C15 H24 N2 O
##MW=248
##$NIST SOURCE=MSDC
##XUNITS=M/Z
##YUNITS=RELATIVE INTENSITY
##XFACTOR=1
##YFACTOR=1
##FIRSTX=38
##LASTX=281
##FIRSTY=220
##MAXX=281
##MINX=38
##MAXY=9999
##MINY=60
##NPOINTS=175
##PEAK TABLE=(XY..XY)
38,220 39,581 40,430 41,1441
42,871 43,530 44,921 45,220
50,200 51,270 52,240 53,550
54,701 55,2062 56,731 57,340
58,300 63,220 64,220 65,430
66,300 67,1041 68,871 70,581
71,240 73,240 75,220 77,611
78,320 79,681 80,841 81,631
82,961 83,841 84,1451 85,270
89,250 91,510 92,300 93,601
94,971 95,791 96,1281 97,1902
98,2913 99,440 100,270 101,180
102,200 103,240 104,180 105,290
106,561 107,480 108,821 109,530
110,1882 111,751 112,1371 113,440
114,220 115,240 116,170 117,340
118,370 119,320 120,631 121,480
122,1231 123,701 124,1131 125,300
126,170 127,170 128,170 129,200
130,270 132,320 133,320 134,1992
135,841 136,9999 137,1712 138,490
139,170 144,170 145,220 146,300
147,430 148,2302 149,5515 150,3863
151,991 152,460 153,200 154,130
158,130 159,170 160,240 161,240
162,440 163,561 164,370 165,490
166,370 167,290 168,150 169,120
171,120 172,130 173,130 174,250
175,250 176,841 177,701 178,410
179,320 180,170 181,170 182,150
183,120 185,120 187,120 188,150
189,250 190,510 191,701 192,2883
193,1161 194,270 195,130 196,120
198,80 201,100 202,120 203,170
204,240 205,751 206,510 207,701
208,180 209,130 210,120 211,120
215,80 216,100 217,120 218,130
219,1101 220,320 221,100 222,130
223,120 224,60 226,60 229,120
230,120 231,370 232,340 233,410
234,360 235,100 236,60 237,100
238,120 243,80 244,60 245,130
246,220 247,5445 248,7036 249,1201
250,170 264,80 281,120
##END=
