##TITLE=2-Cyclohexene-1-carboxylic acid, 2-methyl-4-oxo-, ethyl ester
##JCAMP-DX=4.24
##DATA TYPE=MASS SPECTRUM
##ORIGIN=Chemical Concepts
##OWNER=NIST Mass Spectrometry Data Center
Collection (C) 2014 copyright by the U.S. Secretary of Commerce
on behalf of the United States of America. All rights reserved.
##CAS REGISTRY NO=487-51-4
##$NIST MASS SPEC NO=186837
##MOLFORM=C10 H14 O3
##MW=182
##$NIST SOURCE=MSDC
##XUNITS=M/Z
##YUNITS=RELATIVE INTENSITY
##XFACTOR=1
##YFACTOR=1
##FIRSTX=25
##LASTX=184
##FIRSTY=26
##MAXX=184
##MINX=25
##MAXY=9999
##MINY=4
##NPOINTS=121
##PEAK TABLE=(XY..XY)
25,26 26,539 27,4310 28,931
29,7683 30,314 31,306 37,135
38,587 39,4323 40,1057 41,4039
42,922 43,1121 44,503 45,277
46,40 47,21 49,40 50,472
51,1066 52,966 53,3700 54,482
55,1500 56,135 57,99 58,48
59,48 60,66 61,45 62,100
63,282 64,110 65,859 66,885
67,1104 68,603 69,769 70,168
71,68 72,10 73,66 74,38
75,71 76,85 77,1084 78,335
79,2543 80,1119 81,4762 82,1107
83,253 84,133 85,74 86,58
87,33 88,14 89,18 90,23
91,211 92,73 93,132 94,241
95,2309 96,319 97,583 98,9999
99,677 100,79 101,21 103,69
105,33 106,28 107,207 108,1191
109,8493 110,1455 111,384 112,554
113,77 114,50 115,29 116,24
117,64 118,11 119,31 120,4
121,24 122,49 123,98 124,199
125,786 126,4447 127,395 128,53
134,26 135,69 136,189 137,789
138,83 139,64 140,87 141,34
142,13 143,18 144,75 145,11
149,11 150,10 151,4 152,5
153,90 154,4051 155,430 156,61
167,15 181,16 182,2339 183,321
184,31
##END=
