##TITLE=Aromandendrene
##JCAMP-DX=4.24
##DATA TYPE=MASS SPECTRUM
##ORIGIN=TNO Volatile Compounds in Food - Chemical Concepts
##OWNER=NIST Mass Spectrometry Data Center
Collection (C) 2014 copyright by the U.S. Secretary of Commerce
on behalf of the United States of America. All rights reserved.
##CAS REGISTRY NO=489-39-4
##$NIST MASS SPEC NO=249389
##MOLFORM=C15 H24
##MW=204
##$NIST SOURCE=MSDC
##XUNITS=M/Z
##YUNITS=RELATIVE INTENSITY
##XFACTOR=1
##YFACTOR=1
##FIRSTX=24
##LASTX=206
##FIRSTY=31
##MAXX=206
##MINX=24
##MAXY=9999
##MINY=16
##NPOINTS=117
##PEAK TABLE=(XY..XY)
24,31 25,141 26,45 27,1995
28,701 29,1699 34,91 35,16
37,48 38,158 39,3060 40,531
41,9999 42,572 43,2101 44,34
47,48 48,35 49,38 50,176
51,853 52,439 53,2597 54,410
55,6014 56,318 57,498 58,96
59,45 62,81 63,277 64,162
65,1566 66,520 67,5932 68,419
69,6943 70,385 71,112 73,76
77,4733 78,1378 79,6990 80,1445
81,6330 82,1936 83,830 84,82
91,8568 92,2189 93,8174 94,2131
95,2809 96,635 97,221 102,97
103,463 105,7519 106,2548 107,7433
108,1982 109,1665 110,213 111,118
113,81 115,506 116,307 117,914
118,417 119,5994 120,2299 121,3323
122,3001 123,662 124,48 128,258
129,250 130,174 131,645 132,309
133,6739 134,2193 135,2323 136,531
137,100 138,55 139,35 141,85
143,94 145,414 147,5830 148,4326
149,1018 150,196 152,45 157,63
159,153 161,9217 162,1575 163,257
164,34 173,62 175,741 176,469
177,94 181,38 184,45 187,78
188,82 189,2525 190,475 191,111
195,40 200,16 204,7019 205,1125
206,90
##END=
