##TITLE=12-Hydroxydodecanoic acid
##JCAMP-DX=4.24
##DATA TYPE=MASS SPECTRUM
##ORIGIN=Chemical Concepts
##OWNER=NIST Mass Spectrometry Data Center
Collection (C) 2014 copyright by the U.S. Secretary of Commerce
on behalf of the United States of America. All rights reserved.
##CAS REGISTRY NO=505-95-3
##$NIST MASS SPEC NO=185830
##MOLFORM=C12 H24 O3
##MW=216
##$NIST SOURCE=MSDC
##XUNITS=M/Z
##YUNITS=RELATIVE INTENSITY
##XFACTOR=1
##YFACTOR=1
##FIRSTX=26
##LASTX=217
##FIRSTY=55
##MAXX=217
##MINX=26
##MAXY=9999
##MINY=9
##NPOINTS=131
##PEAK TABLE=(XY..XY)
26,55 27,1471 28,460 29,2907
30,120 31,2001 39,1180 40,275
41,8486 42,1756 43,4240 44,271
45,1299 46,219 51,59 52,34
53,505 54,955 55,9999 56,1969
57,1533 58,164 59,425 60,2967
61,401 65,105 66,148 67,1541
68,2133 69,6338 70,1309 71,927
72,97 73,3781 74,393 75,42
77,78 78,69 79,359 80,398
81,1503 82,1843 83,4388 84,5309
85,741 86,133 87,1167 88,149
89,35 91,128 92,69 93,267
94,610 95,1152 96,1678 97,2297
98,7890 99,733 100,452 101,786
102,154 105,79 106,61 107,198
108,369 109,701 110,1218 111,979
112,1924 113,346 114,529 115,505
116,172 117,34 119,185 120,112
121,248 122,96 123,641 124,512
125,400 126,614 127,222 128,78
129,1382 130,221 131,73 133,240
134,200 135,168 136,369 137,583
138,616 139,249 140,112 141,102
142,43 143,675 144,70 147,58
148,26 149,31 150,9 151,405
152,609 153,193 154,70 155,208
156,81 157,195 158,28 161,35
162,347 163,107 165,48 166,52
167,23 168,29 169,122 170,84
171,40 179,29 180,300 181,126
186,1338 187,187 197,31 198,143
199,196 200,31 217,49
##END=
