##TITLE=cis-Nonachlor
##JCAMP-DX=4.24
##DATA TYPE=MASS SPECTRUM
##ORIGIN=D.G.Hayward MS, Center for Food Safety and Applied Nutrition, FDA, College Park MD.
##OWNER=NIST Mass Spectrometry Data Center
Collection (C) 2014 copyright by the U.S. Secretary of Commerce
on behalf of the United States of America. All rights reserved.
##CAS REGISTRY NO=5103-73-1
##$NIST MASS SPEC NO=378604
##MOLFORM=C10 H5 Cl9
##MW=440
##$NIST SOURCE=MSDC
##XUNITS=M/Z
##YUNITS=RELATIVE INTENSITY
##XFACTOR=1
##YFACTOR=1
##FIRSTX=40
##LASTX=451
##FIRSTY=40
##MAXX=451
##MINX=40
##MAXY=9999
##MINY=10
##NPOINTS=321
##PEAK TABLE=(XY..XY)
40,40 43,30 44,60 45,90
46,50 47,40 48,20 49,180
50,190 51,240 52,40 53,20
54,40 55,40 57,10 58,10
59,10 60,140 61,340 62,250
63,310 64,80 65,741 66,270
67,70 68,20 69,10 71,80
72,110 73,691 74,330 75,350
76,30 77,80 78,200 79,170
80,120 81,30 82,30 83,561
84,360 85,751 86,310 87,230
88,30 89,150 90,100 93,120
94,20 95,250 96,390 97,801
98,631 99,1021 100,631 101,390
102,370 103,150 104,40 107,380
108,410 109,2012 110,230 111,1131
112,60 113,250 114,420 115,611
117,1001 118,741 120,540 121,771
122,300 123,430 124,140 125,150
126,90 127,40 128,20 130,250
131,340 132,811 133,1171 134,631
135,581 136,300 137,300 138,190
139,100 141,430 142,60 143,1101
144,120 145,891 146,110 147,350
148,70 149,290 150,450 151,340
152,130 153,50 154,60 155,180
156,130 157,470 158,230 159,470
160,460 161,180 162,150 163,20
165,220 166,60 167,520 168,300
169,771 170,280 171,460 172,130
173,130 174,40 175,20 177,50
178,40 179,150 180,110 181,220
182,170 183,240 184,110 185,130
186,50 187,20 189,30 191,571
192,140 193,691 194,891 195,561
196,561 197,210 198,120 199,40
200,20 201,220 202,70 203,460
204,631 205,370 206,571 207,210
208,200 209,40 210,30 212,10
213,30 214,150 215,100 216,260
217,440 218,200 219,410 220,90
221,130 222,20 223,20 225,80
226,150 227,450 228,641 229,761
230,1181 231,581 232,821 233,220
234,230 235,1461 236,300 237,2412
238,711 239,1852 240,631 241,841
242,280 243,240 244,50 245,40
246,10 248,80 249,60 250,150
251,430 252,220 253,550 254,200
255,300 256,90 257,70 258,30
259,10 261,1211 262,150 263,2162
264,961 265,1591 266,1061 267,731
268,520 269,190 270,1031 271,140
272,1752 273,200 274,1521 275,250
276,811 277,160 278,280 279,60
280,60 281,30 283,100 284,10
285,260 286,60 287,350 288,110
289,310 290,90 291,140 292,50
293,40 294,10 295,20 296,30
297,20 298,861 299,400 300,1451
301,591 302,991 303,420 304,330
305,140 306,70 307,20 308,20
309,100 310,40 311,170 312,70
313,110 314,20 315,60 317,20
320,10 322,30 323,20 324,40
325,20 326,30 327,10 328,10
332,10 333,250 334,130 335,641
336,250 337,601 338,210 339,280
340,100 341,90 342,40 343,30
345,30 347,20 349,20 351,10
360,10 362,10 369,220 370,50
371,561 372,90 373,621 374,100
375,400 376,80 377,140 378,20
379,40 380,10 404,10 405,3323
406,340 407,8658 408,951 409,9999
410,1101 411,6075 412,671 413,2362
414,300 415,621 416,80 417,110
418,20 419,10 440,120 441,20
442,350 443,50 444,440 445,40
446,330 447,30 448,170 450,60
451,10
##END=
