##TITLE=Diosgenin
##JCAMP-DX=4.24
##DATA TYPE=MASS SPECTRUM
##ORIGIN=Drug Lab
##OWNER=NIST Mass Spectrometry Data Center
Collection (C) 2014 copyright by the U.S. Secretary of Commerce
on behalf of the United States of America. All rights reserved.
##CAS REGISTRY NO=512-04-9
##$NIST MASS SPEC NO=335145
##MOLFORM=C27 H42 O3
##MW=414
##$NIST SOURCE=MSDC
##XUNITS=M/Z
##YUNITS=RELATIVE INTENSITY
##XFACTOR=1
##YFACTOR=1
##FIRSTX=40
##LASTX=415
##FIRSTY=40
##MAXX=415
##MINX=40
##MAXY=9999
##MINY=10
##NPOINTS=228
##PEAK TABLE=(XY..XY)
40,40 41,1121 42,581 43,1021
44,40 45,50 51,30 52,10
53,320 54,80 55,2342 56,330
57,791 58,50 59,30 65,180
66,60 67,951 68,160 69,2632
70,250 71,160 72,40 73,100
74,10 77,561 78,130 79,1261
80,180 81,1101 82,150 83,290
84,70 85,140 86,20 87,10
89,10 91,1651 92,320 93,1311
94,270 95,1051 96,160 97,671
98,80 99,160 100,30 101,10
103,120 104,110 105,1621 106,350
107,1151 108,320 109,721 110,140
111,180 112,80 113,120 114,250
115,1551 116,220 117,621 118,240
119,1081 120,490 121,961 122,460
123,330 124,130 125,400 126,530
127,160 128,260 129,450 130,210
131,801 132,250 133,801 134,200
135,290 136,90 137,120 138,20
139,9999 140,1141 141,260 142,180
143,661 144,290 145,1021 146,270
147,621 148,150 149,190 150,40
151,110 152,40 153,40 154,40
155,170 156,80 157,561 158,581
159,841 160,290 161,591 162,240
163,140 164,70 165,110 166,40
167,100 168,230 169,170 170,70
171,350 172,180 173,330 174,200
175,320 176,190 177,130 178,40
179,40 180,30 181,100 182,40
183,180 184,60 185,220 186,80
187,150 188,80 189,160 190,50
191,10 192,10 193,20 194,10
195,40 196,30 197,200 198,70
199,280 200,70 201,80 202,20
203,30 205,20 209,10 210,10
211,120 212,140 213,190 214,140
215,140 216,60 217,40 218,30
221,10 223,10 224,10 225,110
226,30 227,140 228,50 229,40
230,100 231,80 232,60 233,30
234,10 237,60 238,20 239,40
240,60 241,180 242,60 243,70
244,20 245,30 251,20 252,10
253,290 254,90 255,30 256,10
257,40 258,160 259,80 260,10
267,641 268,160 269,60 270,40
271,841 272,200 273,20 282,1531
283,460 284,100 285,390 286,90
287,30 298,20 300,550 301,150
302,20 309,10 311,70 312,10
315,20 326,100 327,90 328,20
329,10 342,410 343,110 344,90
345,80 346,10 355,100 356,30
381,10 399,10 414,70 415,20
##END=
