##TITLE=Retinal, 9-cis-
##JCAMP-DX=4.24
##DATA TYPE=MASS SPECTRUM
##ORIGIN=GEORGE R. WALLER AND E. C. NELSON OKLAHOMA STATE UNIV., USA
##OWNER=NIST Mass Spectrometry Data Center
Collection (C) 2014 copyright by the U.S. Secretary of Commerce
on behalf of the United States of America. All rights reserved.
##CAS REGISTRY NO=514-85-2
##$NIST MASS SPEC NO=51835
##MOLFORM=C20 H28 O
##MW=284
##$NIST SOURCE=MSDC
##XUNITS=M/Z
##YUNITS=RELATIVE INTENSITY
##XFACTOR=1
##YFACTOR=1
##FIRSTX=39
##LASTX=286
##FIRSTY=1900
##MAXX=286
##MINX=39
##MAXY=9999
##MINY=100
##NPOINTS=200
##PEAK TABLE=(XY..XY)
39,1900 40,300 41,4800 42,700
43,4100 44,500 45,200 46,100
50,200 51,800 52,400 53,1700
54,400 55,3500 56,400 57,700
58,200 59,100 60,100 62,100
63,300 64,200 65,1300 66,400
67,2000 68,300 69,4100 70,400
71,900 72,200 73,100 74,100
75,200 76,200 77,2900 78,900
79,2900 80,1100 81,2700 82,800
83,1300 84,300 85,400 86,300
87,100 88,100 89,300 90,300
91,4800 92,1100 93,2600 94,700
95,5800 96,1500 97,700 98,300
99,300 100,100 101,100 102,200
103,700 104,400 105,5000 106,1300
107,3500 108,1200 109,2800 110,800
111,1000 112,200 118,800 119,5500
120,2200 121,2800 122,1100 123,1900
124,400 125,200 126,100 127,1100
128,1600 129,1600 130,800 131,2500
132,1500 133,3700 134,1200 135,2300
136,900 137,900 138,300 139,300
140,100 141,1000 142,900 143,1800
144,900 145,3300 146,1400 147,3200
148,1700 149,1100 150,400 151,400
152,600 153,700 154,400 155,900
156,800 157,1900 158,800 159,3400
160,1200 161,3200 162,700 163,400
164,200 165,1000 166,400 167,500
168,300 169,700 170,500 171,1700
172,600 173,5300 174,1300 175,1700
176,700 177,1400 178,400 179,300
180,400 181,800 182,400 183,700
184,400 185,1800 186,600 187,1700
188,1200 189,900 190,300 191,200
192,200 193,200 194,200 195,800
196,400 197,700 198,300 199,1800
200,600 201,900 202,600 203,200
204,100 205,200 206,100 207,200
208,100 209,300 210,200 211,300
212,200 213,1000 214,400 215,400
216,100 221,100 222,100 223,200
224,100 225,300 226,200 227,300
228,200 229,100 239,200 241,700
242,200 243,100 251,700 252,200
253,200 254,100 255,1100 256,500
257,100 266,400 267,200 268,200
269,1900 270,500 271,100 282,200
283,100 284,9999 285,2200 286,300
##END=
