##TITLE=2-Bromo-4-isopropylaniline
##JCAMP-DX=4.24
##DATA TYPE=MASS SPECTRUM
##ORIGIN=NIST Mass Spectrometry Data Center, 1994
##OWNER=NIST Mass Spectrometry Data Center
Collection (C) 2014 copyright by the U.S. Secretary of Commerce
on behalf of the United States of America. All rights reserved.
##CAS REGISTRY NO=51605-97-1
##$NIST MASS SPEC NO=136263
##MOLFORM=C9 H12 Br N
##MW=213
##$NIST SOURCE=MSDC
##XUNITS=M/Z
##YUNITS=RELATIVE INTENSITY
##XFACTOR=1
##YFACTOR=1
##FIRSTX=15
##LASTX=217
##FIRSTY=931
##MAXX=217
##MINX=15
##MAXY=9999
##MINY=9
##NPOINTS=96
##PEAK TABLE=(XY..XY)
15,931 16,9 17,74 18,115
26,222 27,1371 28,879 30,98
37,220 38,688 39,2471 40,412
41,1094 42,345 43,17 44,62
46,231 47,231 49,54 50,621
51,1398 52,1789 53,636 54,332
55,54 56,35 59,1672 60,1131
61,275 62,727 63,1641 64,727
65,2022 66,542 67,244 68,43
73,42 74,22 75,350 76,372
77,867 78,629 79,317 80,231
81,83 82,62 86,123 87,149
88,137 89,1004 90,905 91,2451
92,711 93,577 94,176 99,162
100,140 101,59 102,202 103,212
104,631 105,310 106,483 107,121
114,34 115,175 116,346 117,1387
118,2651 119,9999 120,1020 121,54
130,178 131,77 132,379 133,401
134,338 135,42 143,71 145,57
158,34 171,234 173,207 184,217
185,36 186,188 196,137 198,9193
199,1169 200,8545 201,841 213,2615
214,270 215,2577 216,265 217,11
##END=
