##TITLE=Triphenylmethane
##JCAMP-DX=4.24
##DATA TYPE=MASS SPECTRUM
##ORIGIN=Japan AIST/NIMC Database- Spectrum MS-NW-5907
##OWNER=NIST Mass Spectrometry Data Center
Collection (C) 2014 copyright by the U.S. Secretary of Commerce
on behalf of the United States of America. All rights reserved.
##CAS REGISTRY NO=519-73-3
##$NIST MASS SPEC NO=228265
##MOLFORM=C19 H16
##MW=244
##$NIST SOURCE=MSDC
##XUNITS=M/Z
##YUNITS=RELATIVE INTENSITY
##XFACTOR=1
##YFACTOR=1
##FIRSTX=26
##LASTX=247
##FIRSTY=10
##MAXX=247
##MINX=26
##MAXY=9999
##MINY=10
##NPOINTS=140
##PEAK TABLE=(XY..XY)
26,10 27,90 28,20 29,10
31,30 38,30 39,409 40,20
41,40 43,10 44,30 50,179
51,569 52,99 53,20 55,10
57,10 62,99 63,389 64,50
65,239 66,20 69,20 71,10
74,109 75,129 76,139 77,319
78,139 79,40 81,30 82,60
83,50 85,10 86,50 87,119
88,99 89,259 90,40 91,299
92,30 93,50 94,139 95,40
98,30 99,30 100,60 101,189
102,119 103,30 105,20 106,119
107,159 108,109 109,20 110,10
111,20 112,40 113,229 114,229
115,629 116,80 117,10 118,70
119,169 120,119 121,60 122,129
123,10 125,10 126,90 127,80
128,299 129,60 137,30 138,40
139,389 140,60 141,179 142,30
150,50 151,199 152,1719 153,379
154,70 161,20 162,40 163,319
164,459 165,7219 166,4389 167,8579
168,1189 169,90 174,20 175,20
176,70 177,20 178,80 179,20
186,10 187,50 188,40 189,129
190,30 191,30 199,10 200,50
201,40 202,249 203,139 204,30
211,10 212,10 213,99 214,40
215,369 216,129 217,70 218,10
224,20 225,20 226,169 227,129
228,429 229,529 230,109 231,10
236,10 237,60 238,40 239,359
240,129 241,279 242,139 243,2829
244,9999 245,2099 246,209 247,20
##END=
