##TITLE=Acetic acid, chloro-, hexadecyl ester
##JCAMP-DX=4.24
##DATA TYPE=MASS SPECTRUM
##ORIGIN=V.G.Zaikin,TIPS,Russian Acad.Sci.Moscow
##OWNER=NIST Mass Spectrometry Data Center
Collection (C) 2014 copyright by the U.S. Secretary of Commerce
on behalf of the United States of America. All rights reserved.
##CAS REGISTRY NO=52132-58-8
##$NIST MASS SPEC NO=279882
##MOLFORM=C18 H35 Cl O2
##MW=318
##$NIST SOURCE=MSDC
##XUNITS=M/Z
##YUNITS=RELATIVE INTENSITY
##XFACTOR=1
##YFACTOR=1
##FIRSTX=29
##LASTX=269
##FIRSTY=290
##MAXX=269
##MINX=29
##MAXY=9999
##MINY=30
##NPOINTS=106
##PEAK TABLE=(XY..XY)
29,290 31,30 35,50 36,110
38,80 39,450 40,190 41,4194
42,1792 43,6656 44,450 45,110
48,70 49,450 50,290 51,260
52,110 53,410 54,1291 55,9278
56,5725 57,9559 58,430 59,80
60,30 61,290 65,60 66,190
67,1962 68,2592 69,9999 70,5755
71,5095 72,390 73,80 76,80
77,2352 78,90 79,831 80,70
81,1051 82,4354 83,9999 84,3994
85,3413 86,130 91,80 92,30
93,70 94,290 95,1181 96,2552
97,7617 98,2452 99,951 100,140
103,60 107,150 108,60 109,250
110,891 111,3393 112,1551 113,681
121,90 123,190 124,490 125,1692
126,691 127,490 133,80 134,30
135,80 136,30 137,180 138,390
139,490 140,651 141,390 142,70
146,70 151,70 152,320 153,320
154,450 155,350 156,70 159,50
165,80 166,110 167,150 168,190
169,110 180,110 182,150 183,170
194,110 195,60 196,450 197,150
222,290 223,40 224,490 225,350
226,50 269,120
##END=
