##TITLE=1,1'-Biphenyl, 2,2',3,4-tetrachloro-
##JCAMP-DX=4.24
##DATA TYPE=MASS SPECTRUM
##ORIGIN=Organic Synthesis Lab, MSU, Moscow.TRC 1346
##OWNER=NIST Mass Spectrometry Data Center
Collection (C) 2014 copyright by the U.S. Secretary of Commerce
on behalf of the United States of America. All rights reserved.
##CAS REGISTRY NO=52663-59-9
##$NIST MASS SPEC NO=326702
##MOLFORM=C12 H6 Cl4
##MW=290
##$NIST SOURCE=MSDC
##XUNITS=M/Z
##YUNITS=RELATIVE INTENSITY
##XFACTOR=1
##YFACTOR=1
##FIRSTX=51
##LASTX=298
##FIRSTY=604
##MAXX=298
##MINX=51
##MAXY=9999
##MINY=45
##NPOINTS=108
##PEAK TABLE=(XY..XY)
51,604 55,102 60,180 61,801
62,612 63,372 66,85 67,106
71,82 72,159 73,695 74,1564
75,1657 76,144 79,340 80,214
84,525 85,638 86,548 87,354
92,2032 93,970 95,75 96,311
97,839 98,1458 99,926 100,232
101,191 107,145 108,389 109,1101
110,4108 111,2272 112,487 113,51
114,189 115,225 116,141 119,125
120,207 121,324 122,617 123,771
124,258 125,85 127,1153 128,1262
129,509 131,75 132,226 133,365
134,235 135,255 136,271 138,76
144,107 145,674 146,879 147,837
148,355 149,1474 150,3244 151,499
156,123 157,135 158,160 159,217
160,184 171,204 182,115 183,192
184,1573 185,1162 186,734 187,494
193,109 194,183 196,97 197,88
198,45 204,60 206,82 218,90
220,8661 221,1454 222,5492 223,839
224,1062 225,170 230,67 254,366
255,3746 256,828 257,3695 258,708
259,1182 260,182 261,131 290,8709
291,1399 292,9999 293,1514 294,4914
295,767 296,1125 297,132 298,101
##END=
