##TITLE=Phenol, 2-allyl-6-chloro-,
##JCAMP-DX=4.24
##DATA TYPE=MASS SPECTRUM
##ORIGIN=Insect Chem. Ecol. Lab., USDA, Beltsville, MD 20705
##OWNER=NIST Mass Spectrometry Data Center
Collection (C) 2014 copyright by the U.S. Secretary of Commerce
on behalf of the United States of America. All rights reserved.
##CAS REGISTRY NO=5348-07-2
##$NIST MASS SPEC NO=132215
##MOLFORM=C9 H9 Cl O
##MW=168
##$NIST SOURCE=MSDC
##XUNITS=M/Z
##YUNITS=RELATIVE INTENSITY
##XFACTOR=1
##YFACTOR=1
##FIRSTX=41
##LASTX=172
##FIRSTY=524
##MAXX=172
##MINX=41
##MAXY=9999
##MINY=6
##NPOINTS=115
##PEAK TABLE=(XY..XY)
41,524 42,6 43,467 44,73
45,53 47,150 48,73 49,809
50,1174 51,3699 52,619 53,827
55,973 56,68 57,271 59,33
60,58 61,265 62,627 63,1672
64,197 65,978 66,660 67,106
68,41 69,88 70,37 71,45
72,67 73,523 74,493 75,940
76,521 77,4745 78,910 79,1030
80,79 81,85 82,82 83,93
84,412 85,146 86,322 87,263
88,185 89,1129 90,162 91,826
92,131 93,91 94,310 95,27
97,156 98,29 99,345 101,477
102,561 103,1783 104,138 105,2976
106,87 107,942 108,125 109,51
110,59 111,119 112,264 113,221
114,232 115,1687 116,315 117,266
118,238 119,328 120,425 121,266
122,11 123,101 124,46 125,1783
126,54 127,760 128,409 129,155
130,179 131,2868 132,435 133,9999
134,1324 135,144 136,81 137,77
138,52 139,367 140,430 141,2577
142,99 143,1061 144,143 145,324
146,113 150,89 151,230 152,421
153,1699 154,26 155,464 156,121
166,124 167,2275 168,9597 169,1406
170,4550 171,441 172,70
##END=
