##TITLE=Benzene, 1-(1-heptyldodecyl)-4-methyl-
##JCAMP-DX=4.24
##DATA TYPE=MASS SPECTRUM
##OWNER=NIST Mass Spectrometry Data Center
Collection (C) 2014 copyright by the U.S. Secretary of Commerce
on behalf of the United States of America. All rights reserved.
##CAS REGISTRY NO=55191-36-1
##$NIST MASS SPEC NO=16090
##MOLFORM=C26 H46
##MW=358
##$NIST SOURCE=MSDC
##XUNITS=M/Z
##YUNITS=RELATIVE INTENSITY
##XFACTOR=1
##YFACTOR=1
##FIRSTX=12
##LASTX=361
##FIRSTY=10
##MAXX=361
##MINX=12
##MAXY=9999
##MINY=10
##NPOINTS=218
##PEAK TABLE=(XY..XY)
12,10 13,10 14,10 15,30
16,10 17,10 18,20 19,10
20,10 23,10 24,10 25,10
26,30 27,350 28,80 29,801
30,20 31,10 32,10 33,10
34,10 35,10 36,10 37,10
38,10 39,120 40,20 41,861
42,130 43,1101 44,40 45,10
49,10 50,10 51,20 52,10
53,100 54,50 55,601 56,130
57,561 58,30 59,10 61,10
62,10 63,10 64,10 65,50
66,10 67,70 68,20 69,220
70,40 71,90 72,10 74,10
75,10 76,10 77,90 78,30
79,80 80,10 81,40 82,10
83,80 84,10 85,40 86,10
87,10 88,10 89,10 90,10
91,280 92,60 93,30 94,10
95,20 96,10 97,40 98,10
99,10 100,10 101,10 102,10
103,80 104,140 105,9999 106,921
107,40 108,10 109,10 110,10
111,20 112,10 113,10 114,10
115,120 116,100 117,300 118,490
119,410 120,40 121,10 122,10
123,10 124,10 125,10 126,10
127,10 128,40 129,60 130,30
131,440 132,140 133,80 134,10
135,10 136,10 137,10 138,10
139,10 140,10 141,10 142,10
143,20 144,10 145,80 146,20
147,30 148,10 149,10 150,10
151,10 152,10 153,10 154,10
155,10 156,10 157,10 158,10
159,20 160,10 161,20 162,10
163,10 164,10 165,10 166,10
167,10 168,10 169,10 170,10
171,10 172,10 173,10 174,10
175,10 176,10 177,10 178,10
179,10 180,10 181,10 182,10
183,10 185,10 187,10 188,10
189,10 190,10 195,10 199,10
200,10 201,10 202,40 203,1962
204,340 205,30 206,10 215,10
216,10 217,10 218,10 229,10
230,10 231,10 232,10 243,10
244,10 245,10 246,10 257,10
258,30 259,1361 260,290 261,30
262,10 270,10 271,10 272,10
273,10 284,10 285,10 286,10
341,10 342,10 350,10 351,10
352,10 353,10 354,10 355,10
356,10 357,10 358,350 359,100
360,20 361,10
##END=
