##TITLE=Tristearin
##JCAMP-DX=4.24
##DATA TYPE=MASS SPECTRUM
##ORIGIN=Japan AIST/NIMC Database- Spectrum MS-NW- 609
##OWNER=NIST Mass Spectrometry Data Center
Collection (C) 2014 copyright by the U.S. Secretary of Commerce
on behalf of the United States of America. All rights reserved.
##CAS REGISTRY NO=555-43-1
##$NIST MASS SPEC NO=228252
##MOLFORM=C57 H110 O6
##MW=890
##$NIST SOURCE=MSDC
##XUNITS=M/Z
##YUNITS=RELATIVE INTENSITY
##XFACTOR=1
##YFACTOR=1
##FIRSTX=14
##LASTX=676
##FIRSTY=30
##MAXX=676
##MINX=14
##MAXY=9999
##MINY=10
##NPOINTS=392
##PEAK TABLE=(XY..XY)
14,30 15,80 16,20 17,139
18,719 20,40 25,20 26,199
27,1299 28,579 29,2609 30,70
31,80 32,70 36,30 37,20
38,50 39,919 40,219 41,5489
42,1279 43,9169 44,409 45,199
46,10 50,20 51,60 52,40
53,339 54,809 55,6209 56,1879
57,9999 58,539 59,249 60,3169
61,1059 62,40 63,20 65,80
66,109 67,1539 68,1059 69,4289
70,1469 71,5529 72,339 73,3619
74,449 75,50 76,10 77,90
78,70 79,389 80,269 81,1649
82,1169 83,3759 84,2409 85,3379
86,269 87,749 88,109 89,20
91,129 92,80 93,319 94,229
95,1809 96,919 97,2979 98,6239
99,1209 100,719 101,489 102,139
103,30 104,30 105,109 106,40
107,249 108,139 109,1009 110,419
111,1809 112,1559 113,839 114,149
115,529 116,499 117,189 118,40
119,70 120,40 121,329 122,109
123,539 124,239 125,629 126,319
127,369 128,80 129,1669 130,219
131,60 132,10 133,50 134,40
135,249 136,80 137,289 138,169
139,289 140,189 141,239 142,50
143,279 144,50 145,30 146,10
147,40 148,30 149,129 150,40
151,139 152,109 153,189 154,169
155,199 156,50 157,149 158,659
159,90 160,30 161,20 162,20
163,70 164,30 165,90 166,80
167,129 168,99 169,189 170,60
171,1209 172,199 173,50 174,10
175,20 177,60 178,30 179,50
180,80 181,99 182,80 183,179
184,40 185,769 186,119 187,30
189,20 191,30 192,20 193,40
194,50 195,70 196,90 197,80
198,30 199,249 200,60 201,20
205,20 206,10 207,30 208,30
209,50 210,80 211,80 212,20
213,259 214,70 215,20 219,20
220,20 221,30 222,129 223,90
224,90 225,99 226,30 227,549
228,109 229,20 231,10 232,10
233,20 234,10 235,20 236,30
237,40 238,40 239,149 240,40
241,659 242,129 243,30 244,10
245,10 246,20 247,40 248,50
249,40 250,20 251,30 252,20
253,80 254,20 255,179 256,70
257,20 258,20 259,20 260,10
262,30 263,30 264,99 265,149
266,299 267,2629 268,549 269,169
270,40 271,10 276,20 277,10
278,20 279,20 280,30 281,99
282,60 283,169 284,789 285,199
286,30 292,10 293,30 294,30
295,90 296,30 297,139 298,50
299,20 307,30 308,99 309,179
310,50 311,99 312,50 313,60
320,20 321,20 322,169 323,109
324,90 325,229 326,70 327,40
328,10 335,20 336,50 337,50
338,40 339,289 340,159 341,1299
342,309 343,70 344,10 350,10
351,30 352,20 353,90 354,50
355,20 359,40 360,10 365,20
366,20 367,179 368,60 369,50
370,10 379,20 380,20 381,60
382,649 383,369 384,90 385,20
393,70 394,30 395,4279 396,1149
397,209 398,30 401,10 407,20
408,20 409,289 410,99 411,30
421,30 422,20 423,129 424,60
425,20 435,20 437,509 438,179
439,40 449,30 450,10 451,1259
452,419 453,90 454,10 463,10
465,179 466,80 467,20 479,149
480,70 481,20 491,10 493,209
494,90 495,30 505,20 507,279
508,129 509,30 521,179 522,90
523,20 524,10 532,20 533,20
535,129 536,60 537,20 549,129
550,70 551,20 552,10 561,20
562,10 563,609 564,269 565,80
566,20 577,219 578,139 579,109
580,40 581,10 591,50 592,30
593,40 594,30 599,10 603,20
604,70 605,199 606,999 607,1569
608,609 609,149 610,30 619,10
621,10 634,30 635,20 648,40
649,20 651,30 652,10 662,10
663,20 666,40 667,20 676,10
##END=
