##TITLE=Di-.beta.-naphthyl disulfide
##JCAMP-DX=4.24
##DATA TYPE=MASS SPECTRUM
##ORIGIN=Humboldt-Universitat zu Berlin, Department of Chemistry, Analytical Group
##OWNER=NIST Mass Spectrometry Data Center
Collection (C) 2014 copyright by the U.S. Secretary of Commerce
on behalf of the United States of America. All rights reserved.
##CAS REGISTRY NO=5586-15-2
##$NIST MASS SPEC NO=287150
##MOLFORM=C20 H14 S2
##MW=318
##$NIST SOURCE=MSDC
##XUNITS=M/Z
##YUNITS=RELATIVE INTENSITY
##XFACTOR=1
##YFACTOR=1
##FIRSTX=16
##LASTX=322
##FIRSTY=25
##MAXX=322
##MINX=16
##MAXY=9999
##MINY=4
##NPOINTS=147
##PEAK TABLE=(XY..XY)
16,25 17,63 18,135 26,15
27,48 28,32 29,44 31,23
32,19 38,40 39,263 40,23
41,82 42,23 43,135 44,36
45,137 46,19 50,143 51,225
52,40 53,15 55,65 56,29
57,170 58,34 60,11 61,27
62,154 63,497 64,63 65,290
66,29 67,25 69,295 70,46
71,107 73,21 74,191 75,251
76,154 77,149 78,25 79,109
81,55 82,107 83,57 84,29
85,63 86,57 87,137 88,191
89,821 90,67 91,27 93,131
94,25 95,38 96,23 97,48
98,65 99,80 100,51 101,95
102,46 105,21 106,38 107,17
108,40 109,23 110,15 111,34
112,21 113,337 114,728 115,9999
116,1063 117,74 119,23 121,19
124,11 125,51 126,238 127,250
128,185 129,38 132,48 133,17
134,40 139,17 140,13 141,17
142,15 145,23 146,27 147,19
149,11 152,11 155,15 156,13
157,34 158,442 159,4497 160,802
161,278 162,50 163,11 171,15
173,10 185,8 190,192 191,42
192,19 193,8 203,6 224,6
225,6 226,10 227,6 228,6
237,6 239,34 240,10 241,8
250,15 251,6 252,99 253,360
254,1715 255,377 256,36 257,6
258,6 270,6 271,10 282,27
283,27 284,103 285,234 286,67
287,19 288,4 318,1940 319,461
320,242 321,44 322,10
##END=
