##TITLE=3-Methylcholanthrene
##JCAMP-DX=4.24
##DATA TYPE=MASS SPECTRUM
##ORIGIN=Japan AIST/NIMC Database- Spectrum MS-NW-2406
##OWNER=NIST Mass Spectrometry Data Center
Collection (C) 2014 copyright by the U.S. Secretary of Commerce
on behalf of the United States of America. All rights reserved.
##CAS REGISTRY NO=56-49-5
##$NIST MASS SPEC NO=234216
##MOLFORM=C21 H16
##MW=268
##$NIST SOURCE=MSDC
##XUNITS=M/Z
##YUNITS=RELATIVE INTENSITY
##XFACTOR=1
##YFACTOR=1
##FIRSTX=27
##LASTX=271
##FIRSTY=40
##MAXX=271
##MINX=27
##MAXY=9999
##MINY=10
##NPOINTS=143
##PEAK TABLE=(XY..XY)
27,40 28,10 38,10 39,60
41,10 50,40 51,60 52,10
55,20 57,30 62,40 63,70
64,10 69,10 71,20 74,70
75,50 76,20 77,20 78,10
79,20 80,10 81,10 83,10
85,10 86,50 87,109 88,50
89,20 93,70 94,50 95,10
97,10 98,50 99,50 100,90
101,50 105,99 106,189 107,60
108,20 110,30 111,50 112,159
113,389 114,40 115,30 117,99
118,339 119,429 120,179 121,30
122,20 123,20 124,109 125,509
126,1229 127,119 129,40 130,239
131,689 132,629 133,759 134,759
135,30 137,10 139,20 140,10
141,30 146,10 149,10 150,30
151,20 152,10 161,20 162,10
163,40 164,10 165,10 174,30
175,20 176,20 185,20 186,20
187,70 188,30 189,50 190,10
198,30 199,20 200,50 201,20
202,30 209,10 210,10 211,70
212,30 213,90 214,20 215,40
216,10 222,20 223,30 224,109
225,60 226,149 227,40 228,30
229,10 233,10 234,10 235,50
236,50 237,179 238,90 239,349
240,90 241,40 242,20 243,10
245,10 246,10 247,20 248,70
249,80 250,439 251,219 252,2389
253,2199 254,459 255,60 260,30
261,159 262,109 263,709 264,279
265,1739 266,3289 267,2749 268,9999
269,2239 270,259 271,20
##END=
