##TITLE=2-(2-Benzothiazolyl)-5-methylphenol
##JCAMP-DX=4.24
##DATA TYPE=MASS SPECTRUM
##ORIGIN=NIST Mass Spectrometry Data Center, 1994
##OWNER=NIST Mass Spectrometry Data Center
Collection (C) 2014 copyright by the U.S. Secretary of Commerce
on behalf of the United States of America. All rights reserved.
##CAS REGISTRY NO=56048-54-5
##$NIST MASS SPEC NO=135785
##MOLFORM=C14 H11 N O S
##MW=241
##$NIST SOURCE=MSDC
##XUNITS=M/Z
##YUNITS=RELATIVE INTENSITY
##XFACTOR=1
##YFACTOR=1
##FIRSTX=17
##LASTX=244
##FIRSTY=36
##MAXX=244
##MINX=17
##MAXY=9999
##MINY=1
##NPOINTS=143
##PEAK TABLE=(XY..XY)
17,36 18,22 27,295 28,96
37,102 38,387 39,1255 40,112
42,1 44,11 45,414 47,43
50,463 51,896 52,521 53,313
54,50 55,41 57,66 58,399
61,97 62,313 63,1099 64,317
65,1049 66,129 67,44 68,41
69,1795 70,170 71,194 72,27
73,13 75,232 76,301 77,916
78,475 79,114 80,91 81,215
82,745 83,153 84,129 85,43
86,44 87,66 88,63 89,187
90,153 91,104 92,288 93,303
95,80 96,54 97,27 99,74
100,31 101,56 102,126 103,102
104,335 105,339 106,27 107,364
108,764 109,2418 110,270 111,137
112,17 114,40 115,90 116,145
117,33 120,248 122,64 126,33
127,62 128,98 129,30 130,18
132,26 133,63 134,92 135,140
136,281 137,31 138,23 139,61
140,111 141,36 145,64 146,69
147,43 148,32 149,25 150,22
151,63 152,111 153,76 154,77
158,16 159,53 160,164 161,32
162,22 164,21 166,51 167,84
168,41 169,22 170,27 171,48
172,103 173,487 174,82 175,35
178,67 179,71 180,151 181,36
184,139 185,80 186,318 187,56
196,82 197,180 198,147 199,48
200,57 209,52 210,221 212,6824
213,1509 214,471 215,80 224,17
225,20 226,41 238,21 241,9999
242,1686 243,613 244,87
##END=
