##TITLE=Benzene, (1-tetradecylpentadecyl)-
##JCAMP-DX=4.24
##DATA TYPE=MASS SPECTRUM
##ORIGIN=SHELL OIL CO., HOUSTON, TEXAS, USA
##OWNER=NIST Mass Spectrometry Data Center
Collection (C) 2014 copyright by the U.S. Secretary of Commerce
on behalf of the United States of America. All rights reserved.
##CAS REGISTRY NO=56247-97-3
##$NIST MASS SPEC NO=34494
##MOLFORM=C35 H64
##MW=484
##$NIST SOURCE=MSDC
##XUNITS=M/Z
##YUNITS=RELATIVE INTENSITY
##XFACTOR=1
##YFACTOR=1
##FIRSTX=38
##LASTX=487
##FIRSTY=22
##MAXX=487
##MINX=38
##MAXY=9999
##MINY=1
##NPOINTS=259
##PEAK TABLE=(XY..XY)
38,22 39,279 40,67 41,2008
42,507 43,4352 44,154 45,8
49,6 50,19 51,38 52,19
53,95 54,133 55,1455 56,437
57,2603 58,122 59,7 60,4
61,4 62,5 63,12 64,6
65,52 66,21 67,208 68,102
69,763 70,233 71,1133 72,64
73,6 74,7 75,5 76,7
77,87 78,109 79,100 80,22
81,132 82,63 83,503 84,95
85,656 86,47 87,6 88,1
89,14 90,26 91,9999 92,1120
93,87 94,18 95,83 96,31
97,281 98,45 99,144 100,15
101,11 102,17 103,96 104,1398
105,1795 106,175 107,21 108,15
109,37 110,15 111,110 112,23
113,100 114,13 115,106 116,61
117,877 118,627 119,802 120,118
121,18 122,8 123,16 124,8
125,39 126,11 127,77 128,44
129,89 130,63 131,378 132,84
133,585 134,72 135,13 136,2
137,7 138,4 139,14 140,6
141,59 142,16 143,38 144,16
145,73 146,19 147,520 148,66
149,6 150,3 151,4 152,6
153,7 154,8 155,31 156,11
157,11 158,8 159,29 160,14
161,397 162,56 163,7 164,1
165,7 166,4 167,9 168,6
169,22 170,7 171,7 172,3
173,12 174,10 175,341 176,50
177,5 178,5 179,5 180,4
181,8 182,4 183,60 184,11
185,5 186,4 187,8 188,7
189,263 190,42 191,5 192,3
193,4 194,4 195,7 196,4
197,10 198,3 199,3 200,4
201,5 202,9 203,205 204,37
205,6 206,1 207,4 208,4
209,4 210,4 211,54 212,8
213,4 214,2 215,5 216,9
217,139 218,27 219,4 220,1
221,1 222,1 223,1 224,1
225,7 226,4 227,4 228,4
229,4 230,8 231,90 232,18
233,3 236,4 237,1 238,1
239,5 240,2 241,4 243,4
244,8 245,54 246,13 247,4
257,1 258,4 259,10 260,7
261,3 262,3 267,3 268,1
269,3 270,1 271,4 272,4
273,15 274,7 275,3 284,4
285,41 286,304 287,2791 288,922
289,135 290,15 291,1 299,4
300,24 301,29 302,22 303,4
315,4 316,2 317,8 318,4
319,5 320,4 324,2 325,2
326,2 327,2 328,2 329,11
330,5 331,1 343,4 344,3
476,2 477,1 478,4 479,1
480,2 482,13 483,7 484,426
485,164 486,35 487,5
##END=
