##TITLE=Sulfamethazine
##JCAMP-DX=4.24
##DATA TYPE=MASS SPECTRUM
##ORIGIN=Japan AIST/NIMC Database- Spectrum MS-IW- 573
##OWNER=NIST Mass Spectrometry Data Center
Collection (C) 2014 copyright by the U.S. Secretary of Commerce
on behalf of the United States of America. All rights reserved.
##CAS REGISTRY NO=57-68-1
##$NIST MASS SPEC NO=238935
##MOLFORM=C12 H14 N4 O2 S
##MW=278
##$NIST SOURCE=MSDC
##XUNITS=M/Z
##YUNITS=RELATIVE INTENSITY
##XFACTOR=1
##YFACTOR=1
##FIRSTX=15
##LASTX=279
##FIRSTY=30
##MAXX=279
##MINX=15
##MAXY=9999
##MINY=10
##NPOINTS=112
##PEAK TABLE=(XY..XY)
15,30 17,10 18,90 26,10
27,90 28,299 29,10 30,10
38,40 39,529 40,99 41,179
42,399 43,139 44,20 50,10
51,40 52,129 53,129 54,249
55,60 56,10 62,20 63,129
64,209 65,2059 66,409 67,249
68,30 69,10 73,20 75,10
76,10 77,20 78,30 79,50
80,169 81,109 82,189 83,70
85,10 86,20 87,40 90,40
91,209 92,2509 93,339 94,20
95,99 96,219 97,20 98,20
99,10 103,10 104,10 105,40
106,289 107,499 108,1089 109,90
112,10 117,10 118,30 119,20
120,10 122,20 123,419 124,119
125,20 130,30 131,50 132,80
133,90 134,20 140,189 141,10
142,10 144,20 145,40 146,20
147,10 148,10 155,30 156,279
157,60 158,60 159,10 169,10
170,30 171,50 172,70 173,40
174,30 182,10 184,20 185,10
186,30 187,20 196,80 197,60
198,119 199,179 200,20 211,10
212,139 213,6359 214,9999 215,1399
216,90 228,10 277,10 279,30
##END=
