##TITLE=trans-Isoeugenol
##JCAMP-DX=4.24
##DATA TYPE=MASS SPECTRUM
##ORIGIN=NIST Mass Spectrometry Data Center, 1998.
##OWNER=NIST Mass Spectrometry Data Center
Collection (C) 2014 copyright by the U.S. Secretary of Commerce
on behalf of the United States of America. All rights reserved.
##CAS REGISTRY NO=5932-68-3
##$NIST MASS SPEC NO=291309
##MOLFORM=C10 H12 O2
##MW=164
##$NIST SOURCE=MSDC
##XUNITS=M/Z
##YUNITS=RELATIVE INTENSITY
##XFACTOR=1
##YFACTOR=1
##FIRSTX=15
##LASTX=167
##FIRSTY=150
##MAXX=167
##MINX=15
##MAXY=9999
##MINY=10
##NPOINTS=109
##PEAK TABLE=(XY..XY)
15,150 26,40 27,180 29,90
30,10 31,30 37,30 38,120
39,640 40,100 41,220 42,30
43,180 44,10 45,50 46,30
49,30 50,350 51,840 52,340
53,560 54,60 55,1650 56,60
57,20 58,10 59,30 60,30
61,60 62,220 63,550 64,160
65,880 66,270 67,100 68,30
69,60 71,10 73,20 74,150
75,160 76,150 77,2720 78,690
79,620 80,60 81,200 82,120
85,20 86,40 87,50 88,20
89,300 90,100 91,2430 92,300
93,490 94,200 95,70 96,10
97,10 98,20 99,10 101,50
102,260 103,2760 104,1430 105,730
106,100 107,430 108,60 109,120
110,20 113,10 114,10 115,240
116,60 117,80 118,110 119,210
120,130 121,1590 122,250 123,30
124,30 129,10 130,30 131,2430
132,590 133,1580 134,190 135,110
136,20 137,580 138,50 145,20
146,20 147,400 148,110 149,3550
150,360 151,30 161,10 162,30
163,410 164,9999 165,1160 166,100
167,10
##END=
