##TITLE=Triphenylacetic acid
##JCAMP-DX=4.24
##DATA TYPE=MASS SPECTRUM
##ORIGIN=Chemical Concepts
##OWNER=NIST Mass Spectrometry Data Center
Collection (C) 2014 copyright by the U.S. Secretary of Commerce
on behalf of the United States of America. All rights reserved.
##CAS REGISTRY NO=595-91-5
##$NIST MASS SPEC NO=161868
##MOLFORM=C20 H16 O2
##MW=288
##$NIST SOURCE=MSDC
##XUNITS=M/Z
##YUNITS=RELATIVE INTENSITY
##XFACTOR=1
##YFACTOR=1
##FIRSTX=26
##LASTX=290
##FIRSTY=3
##MAXX=290
##MINX=26
##MAXY=9999
##MINY=1
##NPOINTS=151
##PEAK TABLE=(XY..XY)
26,3 27,34 28,21 29,6
31,3 36,9 38,6 39,106
41,13 43,3 44,67 45,34
50,30 51,149 52,24 53,9
55,7 57,1 62,18 63,93
64,10 65,59 66,6 74,22
75,39 76,49 77,227 78,67
79,6 82,5 83,3 86,13
87,34 88,45 89,77 90,12
91,240 92,15 93,13 94,15
95,27 98,7 99,9 100,33
101,118 102,28 103,8 105,75
106,22 107,53 108,65 110,1
111,6 112,13 113,162 114,116
115,263 116,35 117,1 118,9
119,72 120,137 121,215 122,16
125,1 126,50 127,18 128,23
129,7 133,10 134,3 135,12
137,13 138,12 139,136 140,21
141,40 142,4 144,17 149,3
150,22 151,35 152,111 153,36
154,16 161,2 162,13 163,132
164,211 165,4700 166,723 167,201
168,24 174,6 175,6 176,48
177,15 178,33 179,6 181,17
182,1 183,2 186,3 187,32
188,21 189,81 190,18 191,5
192,2 194,1 198,7 199,3
200,43 201,36 202,179 203,48
204,9 209,1 211,18 212,9
213,79 214,24 215,310 216,76
217,8 224,11 225,13 226,195
227,130 228,536 229,112 230,12
231,1 235,2 236,5 237,63
238,35 239,475 240,168 241,403
242,222 243,9999 244,2424 245,240
246,14 258,4 259,8 270,2
288,258 289,50 290,1
##END=
