##TITLE=5-Tetradecyne
##JCAMP-DX=4.24
##DATA TYPE=MASS SPECTRUM
##ORIGIN=S.A. Rang et al., IR & MS of Unsatd. Hydrocarbons, 1977
##OWNER=NIST Mass Spectrometry Data Center
Collection (C) 2014 copyright by the U.S. Secretary of Commerce
on behalf of the United States of America. All rights reserved.
##CAS REGISTRY NO=60212-34-2
##$NIST MASS SPEC NO=142652
##MOLFORM=C14 H26
##MW=194
##$NIST SOURCE=MSDC
##XUNITS=M/Z
##YUNITS=RELATIVE INTENSITY
##XFACTOR=1
##YFACTOR=1
##FIRSTX=15
##LASTX=195
##FIRSTY=65
##MAXX=195
##MINX=15
##MAXY=9999
##MINY=5
##NPOINTS=129
##PEAK TABLE=(XY..XY)
15,65 16,5 24,5 25,21
26,161 27,2497 28,178 29,3389
30,88 31,31 37,18 38,58
39,1605 40,391 41,6552 42,954
43,4340 44,166 45,81 46,5
49,5 50,69 51,289 52,610
53,1784 54,9138 55,7586 56,1127
57,1843 58,235 59,53 60,516
61,55 62,14 63,67 64,42
65,548 66,595 67,8793 68,2854
69,2378 70,454 71,282 72,37
73,313 74,35 75,32 76,12
77,720 78,205 79,1346 80,579
81,9999 82,3746 83,1048 84,191
85,145 86,23 87,46 88,7
89,9 90,7 91,352 92,67
93,415 94,235 95,5690 96,2497
97,798 98,145 99,48 100,23
101,37 102,7 103,16 104,7
105,53 106,14 107,120 108,65
109,1665 110,876 111,205 112,58
113,18 114,14 115,58 116,9
117,9 119,16 120,7 121,48
122,37 123,1189 124,798 125,97
126,16 127,23 128,7 129,39
130,5 133,5 135,35 136,9
137,1724 138,735 139,81 140,9
141,23 142,7 143,5 149,12
150,12 151,305 152,152 153,37
154,5 155,16 156,5 158,7
165,250 166,46 167,21 168,5
179,35 180,7 193,7 194,55
195,7
##END=
