##TITLE=3,9-Dodecadiyne
##JCAMP-DX=4.24
##DATA TYPE=MASS SPECTRUM
##ORIGIN=NIST Mass Spectrometry Data Center
##OWNER=NIST Mass Spectrometry Data Center
Collection (C) 2014 copyright by the U.S. Secretary of Commerce
on behalf of the United States of America. All rights reserved.
##CAS REGISTRY NO=61827-89-2
##$NIST MASS SPEC NO=343450
##MOLFORM=C12 H18
##MW=162
##$NIST SOURCE=MSDC
##XUNITS=M/Z
##YUNITS=RELATIVE INTENSITY
##XFACTOR=1
##YFACTOR=1
##FIRSTX=11
##LASTX=162
##FIRSTY=20
##MAXX=162
##MINX=11
##MAXY=9999
##MINY=10
##NPOINTS=99
##PEAK TABLE=(XY..XY)
11,20 13,20 14,20 15,280
16,30 18,50 20,10 23,10
26,270 27,2823 28,390 29,1221
30,20 32,10 34,20 37,100
38,450 39,6065 40,1331 41,8538
42,390 43,250 44,20 45,10
46,10 48,10 50,681 51,1982
52,1131 53,2572 54,500 55,2702
56,140 57,30 59,10 61,50
62,250 63,801 64,210 65,2532
66,1031 67,4274 68,430 69,330
70,20 74,90 75,80 77,3693
78,961 79,4664 80,611 81,681
82,190 83,10 85,10 86,20
87,20 88,10 89,100 91,7827
92,1011 93,1491 94,210 95,100
96,10 100,10 102,90 103,721
105,9999 106,1141 107,260 108,120
113,10 115,611 116,270 117,1421
118,540 119,3363 120,581 121,160
122,10 127,50 128,130 129,140
130,70 131,460 133,4454 134,961
135,80 139,10 141,20 142,10
143,20 145,80 147,3123 148,370
149,20 159,10 162,130
##END=
