##TITLE=Phenol, 4,4'-methylenebis-
##JCAMP-DX=4.24
##DATA TYPE=MASS SPECTRUM
##ORIGIN=Japan AIST/NIMC Database- Spectrum MS-NW-4106
##OWNER=NIST Mass Spectrometry Data Center
Collection (C) 2014 copyright by the U.S. Secretary of Commerce
on behalf of the United States of America. All rights reserved.
##CAS REGISTRY NO=620-92-8
##$NIST MASS SPEC NO=232694
##MOLFORM=C13 H12 O2
##MW=200
##$NIST SOURCE=MSDC
##XUNITS=M/Z
##YUNITS=RELATIVE INTENSITY
##XFACTOR=1
##YFACTOR=1
##FIRSTX=26
##LASTX=203
##FIRSTY=30
##MAXX=203
##MINX=26
##MAXY=9999
##MINY=10
##NPOINTS=148
##PEAK TABLE=(XY..XY)
26,30 27,229 28,109 29,70
31,10 37,20 38,99 39,499
40,50 41,30 42,20 43,60
44,10 45,30 50,159 51,439
52,159 53,209 54,20 55,569
56,20 57,50 58,30 59,20
61,30 62,129 63,369 64,139
65,349 66,80 67,20 68,20
69,30 70,40 71,40 72,90
73,20 74,80 75,119 76,289
77,929 78,409 79,129 80,10
81,90 82,149 83,10 84,99
85,50 86,70 87,50 88,30
89,129 90,149 91,349 92,60
93,60 94,1469 95,109 98,40
99,90 100,369 101,40 102,50
103,50 104,20 105,329 106,319
107,7619 108,579 109,40 110,10
111,10 113,40 114,40 115,499
116,90 117,40 118,70 119,30
120,90 121,50 122,10 123,10
125,10 126,40 127,49 128,39
129,99 130,10 131,229 132,40
133,10 134,10 135,20 136,30
137,10 138,10 139,139 140,40
141,70 142,70 143,60 144,159
145,129 146,20 147,10 148,10
149,10 150,20 151,179 152,649
153,639 154,129 155,129 156,30
157,219 158,50 159,10 160,10
163,20 164,30 165,289 166,60
167,20 168,129 169,249 170,139
171,369 172,80 173,20 179,10
180,20 181,989 182,309 183,2049
184,349 185,90 186,10 195,10
196,10 197,269 198,169 199,4499
200,9999 201,1429 202,139 203,10
##END=
