##TITLE=3,4-Dichlorophenyl isothiocyanate
##JCAMP-DX=4.24
##DATA TYPE=MASS SPECTRUM
##ORIGIN=NIST Mass Spectrometry Data Center, 1994
##OWNER=NIST Mass Spectrometry Data Center
Collection (C) 2014 copyright by the U.S. Secretary of Commerce
on behalf of the United States of America. All rights reserved.
##CAS REGISTRY NO=6590-94-9
##$NIST MASS SPEC NO=134508
##MOLFORM=C7 H3 Cl2 N S
##MW=203
##$NIST SOURCE=MSDC
##XUNITS=M/Z
##YUNITS=RELATIVE INTENSITY
##XFACTOR=1
##YFACTOR=1
##FIRSTX=26
##LASTX=209
##FIRSTY=149
##MAXX=209
##MINX=26
##MAXY=9999
##MINY=32
##NPOINTS=117
##PEAK TABLE=(XY..XY)
26,149 27,71 32,555 34,49
35,221 36,265 37,1221 38,679
39,219 40,53 44,756 45,303
46,78 47,276 48,139 49,815
50,1580 51,402 52,107 56,119
57,105 58,337 59,104 60,393
61,1092 62,1021 63,709 64,351
65,137 66,120 68,48 69,257
70,999 71,203 72,580 73,1465
74,3202 75,2250 76,274 79,344
80,62 81,216 82,149 83,545
84,1176 85,685 86,418 87,449
88,688 89,91 93,51 94,135
95,99 96,149 97,487 98,345
99,363 100,572 101,743 102,425
103,98 105,100 106,184 107,278
108,281 109,2562 110,581 111,830
112,167 118,61 119,90 120,58
121,60 124,597 125,62 126,193
131,39 132,132 133,1150 134,111
135,210 136,271 137,68 138,56
141,69 142,52 143,45 144,39
145,2803 146,245 147,1784 148,154
149,329 152,36 154,32 159,343
160,49 161,210 163,55 167,195
168,1171 169,170 170,405 171,672
172,80 173,446 174,44 175,56
176,169 178,113 203,9999 204,936
205,6250 206,607 207,1198 208,126
209,47
##END=
