##TITLE=2,11-Dioxabicyclo[4.4.1]undeca-3,5-dien-10-one, 1,3,7,7-tetramethyl-
##JCAMP-DX=4.24
##DATA TYPE=MASS SPECTRUM
##ORIGIN=Chemical Concepts
##OWNER=NIST Mass Spectrometry Data Center
Collection (C) 2014 copyright by the U.S. Secretary of Commerce
on behalf of the United States of America. All rights reserved.
##CAS REGISTRY NO=70412-52-1
##$NIST MASS SPEC NO=185835
##MOLFORM=C13 H18 O3
##MW=222
##$NIST SOURCE=MSDC
##XUNITS=M/Z
##YUNITS=RELATIVE INTENSITY
##XFACTOR=1
##YFACTOR=1
##FIRSTX=26
##LASTX=224
##FIRSTY=47
##MAXX=224
##MINX=26
##MAXY=9999
##MINY=7
##NPOINTS=123
##PEAK TABLE=(XY..XY)
26,47 27,572 28,124 29,251
31,10 38,25 39,501 40,84
41,1000 42,235 43,5642 44,166
45,97 50,53 51,206 52,180
53,685 54,99 55,662 56,114
57,78 59,17 60,12 63,59
64,24 65,190 66,65 67,317
68,36 69,462 70,76 71,45
72,20 73,12 74,21 75,9
76,8 77,381 78,77 79,377
80,119 81,373 82,82 83,412
84,36 85,62 89,13 90,13
91,308 92,51 93,255 94,77
95,944 96,244 97,506 98,60
99,23 103,39 104,15 105,158
106,28 107,280 108,129 109,3549
110,306 111,85 112,15 115,25
116,11 117,33 118,10 119,236
120,41 121,220 122,204 123,9999
124,1439 125,301 126,31 127,11
128,15 129,7 131,24 132,12
133,119 134,26 135,164 136,110
137,1150 138,186 139,32 143,25
145,19 146,27 147,286 148,75
149,75 150,25 151,136 152,88
153,259 154,26 161,285 162,99
163,396 164,99 165,835 166,144
167,22 177,18 178,14 179,4484
180,783 181,77 189,65 190,7
204,13 205,7 207,208 208,26
222,2757 223,411 224,46
##END=
