##TITLE=Mestranol
##JCAMP-DX=4.24
##DATA TYPE=MASS SPECTRUM
##ORIGIN=Japan AIST/NIMC Database- Spectrum MS-NW-8165
##OWNER=NIST Mass Spectrometry Data Center
Collection (C) 2014 copyright by the U.S. Secretary of Commerce
on behalf of the United States of America. All rights reserved.
##CAS REGISTRY NO=72-33-3
##$NIST MASS SPEC NO=234188
##MOLFORM=C21 H26 O2
##MW=310
##$NIST SOURCE=MSDC
##XUNITS=M/Z
##YUNITS=RELATIVE INTENSITY
##XFACTOR=1
##YFACTOR=1
##FIRSTX=15
##LASTX=313
##FIRSTY=10
##MAXX=313
##MINX=15
##MAXY=9999
##MINY=10
##NPOINTS=248
##PEAK TABLE=(XY..XY)
15,10 17,40 18,199 24,10
25,40 26,209 27,99 28,50
29,80 39,179 40,50 41,339
42,30 43,129 45,60 50,10
51,90 52,30 53,269 54,30
55,269 56,10 57,30 63,60
64,20 65,179 66,30 67,229
68,129 69,109 70,10 71,10
75,20 76,40 77,349 78,139
79,259 80,30 81,229 82,30
83,40 85,20 86,30 88,10
89,90 90,30 91,749 92,99
93,199 94,40 95,129 96,30
97,169 98,20 99,60 100,20
101,30 102,90 103,229 104,119
105,209 106,90 107,279 108,99
109,90 110,20 111,40 112,20
113,20 114,30 115,819 116,289
117,349 118,60 119,169 120,40
121,679 122,219 123,90 124,219
125,30 126,30 127,259 128,579
129,499 130,159 131,319 132,139
133,99 134,489 135,339 136,349
137,119 138,20 139,50 140,30
141,379 142,179 143,279 144,439
145,579 146,299 147,1869 148,289
149,70 150,90 151,40 152,139
153,169 154,90 155,179 156,60
157,169 158,709 159,1329 160,1839
161,619 162,80 163,50 164,20
165,179 166,80 167,119 168,60
169,109 170,80 171,929 172,759
173,2009 174,3159 175,589 176,80
177,20 178,70 179,90 180,40
181,90 182,50 183,119 184,349
185,589 186,1689 187,699 188,149
189,80 190,30 191,40 192,20
193,60 194,40 195,90 196,99
197,239 198,229 199,1779 200,709
201,149 202,70 203,50 204,20
205,30 206,10 207,30 208,40
209,159 210,129 211,339 212,259
213,509 214,419 215,109 216,30
217,20 218,20 219,30 220,20
221,50 222,90 223,159 224,199
225,579 226,229 227,9999 228,1889
229,399 230,60 231,20 232,10
233,30 234,30 235,109 236,50
237,99 238,139 239,149 240,329
241,179 242,1879 243,349 244,30
245,10 246,10 247,70 248,30
249,189 250,119 251,159 252,40
253,339 254,90 255,70 256,159
257,30 260,30 261,50 262,129
263,109 264,319 265,99 266,80
267,109 268,90 269,70 270,10
275,10 277,129 278,30 279,50
280,10 281,60 282,239 283,129
284,2929 285,609 286,70 291,30
292,179 293,99 294,30 295,80
296,20 300,10 308,20 309,70
310,6339 311,1469 312,189 313,10
##END=
