##TITLE=Sulfamethoxazole
##JCAMP-DX=4.24
##DATA TYPE=MASS SPECTRUM
##ORIGIN=Japan AIST/NIMC Database- Spectrum MS-NW-9489
##OWNER=NIST Mass Spectrometry Data Center
Collection (C) 2014 copyright by the U.S. Secretary of Commerce
on behalf of the United States of America. All rights reserved.
##CAS REGISTRY NO=723-46-6
##$NIST MASS SPEC NO=236956
##MOLFORM=C10 H11 N3 O3 S
##MW=253
##$NIST SOURCE=MSDC
##XUNITS=M/Z
##YUNITS=RELATIVE INTENSITY
##XFACTOR=1
##YFACTOR=1
##FIRSTX=14
##LASTX=256
##FIRSTY=10
##MAXX=256
##MINX=14
##MAXY=9999
##MINY=10
##NPOINTS=122
##PEAK TABLE=(XY..XY)
14,10 15,90 17,25 18,145
26,20 27,99 28,39 29,20
30,50 37,30 38,139 39,1029
40,149 41,419 42,189 43,819
44,50 45,30 46,10 48,30
50,60 51,99 52,319 53,199
54,149 55,149 56,20 57,20
58,10 60,10 61,20 62,90
63,359 64,459 65,4399 66,629
67,159 68,109 69,149 70,20
71,10 73,10 74,30 75,30
76,40 77,30 78,70 79,179
80,339 81,60 82,20 83,30
84,20 85,20 89,20 90,109
91,409 92,9999 93,1209 94,60
95,20 96,30 97,159 98,99
99,30 104,10 105,109 106,489
107,209 108,6789 109,539 110,30
112,30 117,20 118,229 119,2769
120,249 121,20 123,70 124,90
125,99 126,10 130,10 131,30
132,60 133,30 134,10 140,1479
141,139 142,70 143,10 144,10
145,50 146,229 147,219 148,40
149,40 155,10 156,8299 157,1089
158,459 159,60 160,80 161,20
162,2739 163,299 164,20 171,20
172,279 173,40 174,1759 175,189
176,10 188,399 189,1529 190,189
191,60 198,10 253,1989 254,459
255,269 256,40
##END=
