##TITLE=2,2'-Bipyridine, 1,1'-dioxide
##JCAMP-DX=4.24
##DATA TYPE=MASS SPECTRUM
##ORIGIN=A.A.Kutin, Moscow, Russia
##OWNER=NIST Mass Spectrometry Data Center
Collection (C) 2014 copyright by the U.S. Secretary of Commerce
on behalf of the United States of America. All rights reserved.
##CAS REGISTRY NO=7275-43-6
##$NIST MASS SPEC NO=275158
##MOLFORM=C10 H8 N2 O2
##MW=188
##$NIST SOURCE=MSDC
##XUNITS=M/Z
##YUNITS=RELATIVE INTENSITY
##XFACTOR=1
##YFACTOR=1
##FIRSTX=35
##LASTX=190
##FIRSTY=2
##MAXX=190
##MINX=35
##MAXY=9999
##MINY=1
##NPOINTS=120
##PEAK TABLE=(XY..XY)
35,2 36,21 37,721 38,3193
39,9999 40,1105 41,729 42,301
43,312 44,495 45,27 46,7
48,3 49,192 50,1498 51,3296
52,1712 53,432 54,255 55,385
56,32 57,36 58,17 59,1
60,9 61,617 62,1828 63,3089
64,1557 65,739 66,532 67,423
68,406 69,129 70,10 71,16
73,66 74,518 75,515 76,432
77,663 78,4147 79,1889 80,324
81,3 82,40 83,58 84,35
85,244 86,461 87,541 88,512
89,981 90,421 91,410 92,173
93,81 94,99 95,7 97,4
98,82 99,51 100,46 101,85
102,174 103,253 104,877 105,823
106,109 107,3 108,1 109,2
110,68 111,37 112,33 113,336
114,370 115,375 116,2722 117,1286
118,530 119,189 120,17 121,24
126,9 127,48 128,440 129,267
130,508 131,1120 132,373 133,98
134,350 135,7 139,1 140,198
141,110 142,920 143,2106 144,647
145,133 146,1 153,4 155,238
156,249 157,32 158,89 159,231
160,223 161,4 169,9 170,80
171,2402 172,344 173,48 186,5
187,181 188,2702 189,908 190,63
##END=
