##TITLE=Ethanone, 1-phenyl-, (1-phenylethylidene)hydrazone
##JCAMP-DX=4.24
##DATA TYPE=MASS SPECTRUM
##ORIGIN=D.HENNEBERG, MAX-PLANCK INSTITUTE, MULHEIM, WEST GERMANY
##OWNER=NIST Mass Spectrometry Data Center
Collection (C) 2014 copyright by the U.S. Secretary of Commerce
on behalf of the United States of America. All rights reserved.
##CAS REGISTRY NO=729-43-1
##$NIST MASS SPEC NO=62219
##MOLFORM=C16 H16 N2
##MW=236
##$NIST SOURCE=MSDC
##XUNITS=M/Z
##YUNITS=RELATIVE INTENSITY
##XFACTOR=1
##YFACTOR=1
##FIRSTX=26
##LASTX=239
##FIRSTY=210
##MAXX=239
##MINX=26
##MAXY=9999
##MINY=2
##NPOINTS=128
##PEAK TABLE=(XY..XY)
26,210 27,298 28,439 30,16
36,4 37,14 38,35 39,302
40,105 41,148 42,268 44,23
48,10 49,29 50,322 51,2063
52,238 53,31 54,2 56,27
59,8 62,19 63,133 64,53
65,187 66,45 67,9 70,4
71,7 73,8 74,65 75,149
76,713 77,9999 78,1608 79,190
83,2 89,145 90,176 91,977
92,365 93,43 94,9 95,5
98,21 100,25 101,21 102,282
103,2505 104,1986 105,228 106,36
107,14 115,93 116,235 117,552
118,3539 119,606 120,95 127,16
128,64 129,32 130,52 131,81
132,1064 133,899 134,184 135,23
142,24 143,379 144,70 145,61
146,5 151,34 152,65 153,59
154,29 155,9 157,17 158,34
159,2311 160,224 161,14 165,51
166,21 167,35 168,10 178,41
179,38 180,1082 181,147 182,8
188,7 189,30 190,12 191,46
192,34 193,90 194,617 195,329
196,48 198,16 202,12 203,17
204,32 205,59 206,103 207,115
208,94 209,23 210,19 211,14
214,19 215,11 217,16 218,49
219,80 220,87 221,9364 222,1599
223,154 233,24 234,34 235,1186
236,6412 237,1220 238,118 239,10
##END=
