##TITLE=1-(4-Methoxyphenyl)-1-cyclohexanecarboxylic acid
##JCAMP-DX=4.24
##DATA TYPE=MASS SPECTRUM
##ORIGIN=NIST Mass Spectrometry Data Center
##OWNER=NIST Mass Spectrometry Data Center
Collection (C) 2014 copyright by the U.S. Secretary of Commerce
on behalf of the United States of America. All rights reserved.
##CAS REGISTRY NO=7469-83-2
##$NIST MASS SPEC NO=343246
##MOLFORM=C14 H18 O3
##MW=234
##$NIST SOURCE=MSDC
##XUNITS=M/Z
##YUNITS=RELATIVE INTENSITY
##XFACTOR=1
##YFACTOR=1
##FIRSTX=15
##LASTX=236
##FIRSTY=280
##MAXX=236
##MINX=15
##MAXY=9999
##MINY=10
##NPOINTS=117
##PEAK TABLE=(XY..XY)
15,280 16,20 18,20 26,30
27,530 28,190 29,450 30,60
31,30 32,20 38,70 39,611
40,100 41,561 42,90 43,250
44,200 45,350 46,30 47,20
50,130 51,360 52,130 53,400
54,110 55,540 56,10 57,20
62,10 63,380 64,180 65,420
66,100 67,100 68,10 69,20
72,20 74,30 75,110 76,170
77,901 78,500 79,581 80,50
81,951 82,70 83,20 86,30
87,30 89,270 90,210 91,911
92,190 93,60 94,50 95,30
100,20 101,60 102,230 103,350
104,160 105,220 106,50 107,100
108,110 109,130 113,50 115,811
116,160 117,220 119,10 121,9999
122,851 123,30 125,40 126,30
127,160 128,280 129,350 130,90
131,160 132,100 133,631 134,190
135,170 137,40 138,40 139,10
141,70 142,50 143,10 144,170
145,380 147,350 148,80 149,40
152,10 153,40 155,30 157,90
158,70 159,240 160,210 161,10
166,40 172,50 173,120 174,30
178,120 181,30 187,70 189,5475
190,741 191,70 234,991 235,180
236,30
##END=
