##TITLE=Pregnane-3,20-diol, (3.alpha.,5.beta.,20S)-
##JCAMP-DX=4.24
##DATA TYPE=MASS SPECTRUM
##ORIGIN=LAC, NIDDK, NIH, Bethesda, MD 20892
##OWNER=NIST Mass Spectrometry Data Center
Collection (C) 2014 copyright by the U.S. Secretary of Commerce
on behalf of the United States of America. All rights reserved.
##CAS REGISTRY NO=80-92-2
##$NIST MASS SPEC NO=126781
##MOLFORM=C21 H36 O2
##MW=320
##$NIST SOURCE=MSDC
##XUNITS=M/Z
##YUNITS=RELATIVE INTENSITY
##XFACTOR=1
##YFACTOR=1
##FIRSTX=41
##LASTX=321
##FIRSTY=2117
##MAXX=321
##MINX=41
##MAXY=9999
##MINY=23
##NPOINTS=176
##PEAK TABLE=(XY..XY)
41,2117 43,2183 45,3627 46,71
51,31 53,634 55,2724 56,23
57,903 58,71 59,46 65,291
67,2751 68,896 69,1086 70,201
71,563 72,38 77,969 79,3196
80,734 81,3086 82,490 83,655
84,174 85,201 86,28 91,1869
92,471 93,2565 94,1229 95,2451
96,315 97,275 98,34 99,32
103,60 105,1526 106,768 107,1848
108,953 109,921 110,164 111,178
112,25 115,102 116,32 117,291
118,219 119,965 120,864 121,1141
122,758 123,427 124,206 125,98
126,28 127,34 128,93 129,108
130,41 131,468 132,210 133,1033
134,536 135,995 136,285 137,161
138,48 139,31 143,109 144,43
145,770 146,257 147,1188 148,549
149,946 150,179 151,87 152,26
157,138 158,88 159,1003 160,576
161,1507 162,2255 163,724 164,138
165,656 166,203 167,45 171,153
172,74 173,859 174,907 175,1152
176,592 177,236 178,68 179,59
180,23 185,171 186,58 187,691
188,569 189,478 190,258 191,132
192,164 193,49 199,303 200,172
201,1941 202,543 203,405 204,105
205,89 206,278 207,49 213,512
214,300 215,4358 216,9544 217,2238
218,390 219,454 220,100 227,306
228,300 229,1133 230,1198 231,400
232,380 233,4565 234,9999 235,1750
236,170 241,247 242,174 243,727
244,212 245,151 246,946 247,273
248,341 249,48 255,482 256,213
257,1071 258,381 259,262 260,212
261,851 262,188 263,67 269,2879
270,648 271,86 273,281 274,350
275,80 283,96 284,3062 285,909
286,164 287,2679 288,610 289,75
300,28 301,114 302,8206 303,1993
304,265 305,81 320,234 321,53
##END=
