##TITLE=2,4,6-Trimethoxybenzaldehyde
##JCAMP-DX=4.24
##DATA TYPE=MASS SPECTRUM
##ORIGIN=Japan AIST/NIMC Database- Spectrum MS-NW-7353
##OWNER=NIST Mass Spectrometry Data Center
Collection (C) 2014 copyright by the U.S. Secretary of Commerce
on behalf of the United States of America. All rights reserved.
##CAS REGISTRY NO=830-79-5
##$NIST MASS SPEC NO=235639
##MOLFORM=C10 H12 O4
##MW=196
##$NIST SOURCE=MSDC
##XUNITS=M/Z
##YUNITS=RELATIVE INTENSITY
##XFACTOR=1
##YFACTOR=1
##FIRSTX=15
##LASTX=199
##FIRSTY=309
##MAXX=199
##MINX=15
##MAXY=9999
##MINY=10
##NPOINTS=155
##PEAK TABLE=(XY..XY)
15,309 26,70 27,159 28,99
29,249 30,20 31,60 37,109
38,349 39,669 40,60 41,189
42,60 43,159 44,10 45,60
47,10 49,80 50,539 51,809
52,469 53,539 54,99 55,169
56,30 57,30 59,529 60,30
61,199 62,579 63,929 64,339
65,509 66,409 67,189 68,50
69,1669 70,70 71,20 72,10
73,40 74,179 75,239 76,169
77,589 78,459 79,569 80,249
81,239 82,119 83,129 84,90
85,50 86,10 88,10 89,30
90,179 91,319 92,339 93,379
94,239 95,529 96,149 97,60
98,30 99,10 100,10 103,20
104,30 105,169 106,1999 107,649
108,369 109,719 110,239 111,70
112,20 113,20 114,10 115,10
116,10 117,10 118,20 119,80
120,529 121,1169 122,609 123,329
124,269 125,629 126,70 127,20
128,20 129,10 130,10 131,10
132,20 133,90 134,429 135,1129
136,239 137,1339 138,329 139,1009
140,99 141,20 142,10 143,10
144,10 145,10 146,10 147,20
148,309 149,799 150,1679 151,1399
152,1149 153,379 154,219 155,20
156,10 157,10 159,10 160,10
161,90 162,30 163,509 164,299
165,1369 166,319 167,1369 168,319
169,40 170,10 171,10 172,10
173,10 174,10 175,20 176,10
177,179 178,1819 179,5289 180,1869
181,829 182,99 183,10 192,10
193,20 194,20 195,6199 196,9999
197,1229 198,159 199,10
##END=
