##TITLE=1,1'-Biphenyl, 2-nitro-
##JCAMP-DX=4.24
##DATA TYPE=MASS SPECTRUM
##ORIGIN=Japan AIST/NIMC Database- Spectrum MS-NW-4752
##OWNER=NIST Mass Spectrometry Data Center
Collection (C) 2014 copyright by the U.S. Secretary of Commerce
on behalf of the United States of America. All rights reserved.
##CAS REGISTRY NO=86-00-0
##$NIST MASS SPEC NO=232563
##MOLFORM=C12 H9 N O2
##MW=199
##$NIST SOURCE=MSDC
##XUNITS=M/Z
##YUNITS=RELATIVE INTENSITY
##XFACTOR=1
##YFACTOR=1
##FIRSTX=14
##LASTX=201
##FIRSTY=10
##MAXX=201
##MINX=14
##MAXY=9999
##MINY=10
##NPOINTS=155
##PEAK TABLE=(XY..XY)
14,10 16,10 26,90 27,329
28,109 29,30 30,259 32,10
36,10 37,90 38,209 39,1129
40,99 41,80 42,10 43,30
44,80 46,20 49,60 50,849
51,1469 52,339 53,389 54,30
55,249 56,20 57,249 58,109
59,20 60,10 61,179 62,559
63,1569 64,299 65,349 66,50
67,50 68,129 69,119 70,159
71,40 72,60 73,80 74,849
75,1169 76,2689 77,1659 78,349
79,70 80,20 81,239 82,30
83,99 84,50 85,109 86,299
87,459 88,239 89,569 90,639
91,409 92,209 93,60 94,50
95,50 96,10 97,30 98,279
99,229 100,159 101,549 102,669
103,359 104,399 105,90 106,70
107,10 108,10 109,40 110,70
111,90 112,30 113,269 114,309
115,6549 116,2099 117,1909 118,249
119,119 120,40 121,20 122,50
123,30 124,20 125,199 126,1259
127,1759 128,1259 129,1419 130,529
131,90 132,50 133,10 134,10
135,10 136,10 137,40 138,70
139,1229 140,619 141,2459 142,2209
143,4379 144,1049 145,209 146,479
147,60 148,10 149,70 150,889
151,2879 152,9999 153,2119 154,2649
155,429 156,139 157,20 158,20
159,10 161,10 163,10 164,40
165,40 166,769 167,1229 168,1359
169,1129 170,2239 171,7109 172,959
173,70 174,10 179,10 180,20
181,60 182,5139 183,849 184,80
185,10 195,10 196,10 198,609
199,3499 200,489 201,50
##END=
