##TITLE=Thiourea, 1-naphthalenyl-
##JCAMP-DX=4.24
##DATA TYPE=MASS SPECTRUM
##ORIGIN=Japan AIST/NIMC Database- Spectrum MS-NW-4297
##OWNER=NIST Mass Spectrometry Data Center
Collection (C) 2014 copyright by the U.S. Secretary of Commerce
on behalf of the United States of America. All rights reserved.
##CAS REGISTRY NO=86-88-4
##$NIST MASS SPEC NO=232440
##MOLFORM=C11 H10 N2 S
##MW=202
##$NIST SOURCE=MSDC
##XUNITS=M/Z
##YUNITS=RELATIVE INTENSITY
##XFACTOR=1
##YFACTOR=1
##FIRSTX=26
##LASTX=205
##FIRSTY=30
##MAXX=205
##MINX=26
##MAXY=9999
##MINY=10
##NPOINTS=152
##PEAK TABLE=(XY..XY)
26,30 27,109 28,20 29,10
32,99 33,109 34,259 36,30
37,70 38,139 39,459 40,50
41,70 42,30 43,299 44,60
45,60 47,10 49,30 50,329
51,479 52,149 53,40 54,10
55,20 56,30 57,119 58,60
59,169 60,1069 61,139 62,339
63,679 64,149 65,259 66,50
67,20 69,40 70,219 71,149
72,20 73,40 74,349 75,499
76,309 77,719 78,119 79,139
80,20 81,10 82,20 83,20
84,139 85,60 86,139 87,249
88,249 89,569 90,159 91,119
92,189 93,60 94,20 95,10
96,10 97,20 98,80 99,99
100,169 101,649 102,169 103,109
104,60 106,10 108,10 109,10
110,30 111,30 112,30 113,359
114,679 115,4949 116,1899 117,349
118,30 119,10 120,10 121,30
122,20 123,10 124,20 125,99
126,729 127,2149 128,769 129,99
130,50 133,10 134,60 135,10
138,30 139,70 140,1099 141,839
142,769 143,9999 144,1169 145,80
146,30 147,30 148,10 149,30
151,30 152,229 153,349 154,139
155,30 156,20 157,20 158,249
159,249 160,4989 161,599 162,259
163,30 164,10 165,20 166,40
167,219 168,3129 169,2209 170,299
171,20 172,80 173,80 174,90
175,20 176,10 181,10 183,20
184,99 185,2959 186,409 187,159
188,30 199,10 200,149 201,179
202,6129 203,879 204,359 205,50
##END=
