##TITLE=Phenol, 2,2'-methylenebis[6-(1,1-dimethylethyl)-4-ethyl-
##JCAMP-DX=4.24
##DATA TYPE=MASS SPECTRUM
##ORIGIN=J.E. WILKINSON S-CUBED, SAN DIEGO, CA.
##OWNER=NIST Mass Spectrometry Data Center
Collection (C) 2014 copyright by the U.S. Secretary of Commerce
on behalf of the United States of America. All rights reserved.
##CAS REGISTRY NO=88-24-4
##$NIST MASS SPEC NO=80709
##MOLFORM=C25 H36 O2
##MW=368
##$NIST SOURCE=MSDC
##XUNITS=M/Z
##YUNITS=RELATIVE INTENSITY
##XFACTOR=1
##YFACTOR=1
##FIRSTX=45
##LASTX=370
##FIRSTY=3
##MAXX=370
##MINX=45
##MAXY=9999
##MINY=1
##NPOINTS=212
##PEAK TABLE=(XY..XY)
45,3 49,1 50,3 51,42
52,5 53,243 54,2 55,871
57,4535 58,161 59,4 63,10
64,2 65,189 66,21 67,190
68,4 69,199 70,2 71,3
73,3 74,1 76,7 77,549
78,113 79,500 80,23 81,74
82,2 83,38 84,2 88,2
89,33 90,13 91,1797 92,178
93,251 94,15 95,69 96,9
97,11 101,7 102,23 103,254
104,127 105,1311 106,175 107,629
108,55 109,36 110,4 111,9
112,7 113,8 114,3 115,598
116,302 117,734 118,179 119,1801
120,245 121,452 122,324 123,360
124,22 125,11 126,31 127,270
128,383 129,426 130,135 131,436
132,211 133,912 134,280 135,3121
136,274 137,21 139,16 140,96
141,2005 142,143 143,79 144,59
145,520 146,323 147,1534 148,329
149,445 150,32 151,80 152,53
153,66 154,106 155,1364 157,47
158,33 159,294 160,120 161,959
162,418 163,5175 164,570 165,160
166,28 167,22 168,26 169,2241
171,23 172,5 173,137 174,99
175,7223 176,1098 177,667 178,6759
179,885 180,55 181,32 182,5
183,8 184,77 185,7 187,61
188,10 189,538 190,592 191,9999
192,1410 193,105 194,11 195,19
196,3 197,11 198,1 199,5
201,3 202,57 203,44 204,9
205,27 206,7 207,23 208,9
209,19 210,5 211,4 213,3
215,23 216,7 217,7 218,4
219,15 220,4 221,11 222,4
223,10 224,3 225,5 226,3
227,11 228,2 229,3 231,3
232,1 233,4 234,2 235,7
236,2 237,11 238,2 239,7
241,8 243,2 247,2 249,7
251,5 253,25 254,4 255,86
256,173 257,13 262,1 263,2
265,9 267,5 269,2 277,1
279,3 281,10 283,3 293,10
295,26 296,1 297,160 298,15
309,24 310,43 311,232 312,853
313,149 314,3 321,7 337,3
339,2 351,2 353,14 354,2
366,23 368,2007 369,465 370,36
##END=
