##TITLE=3,5-di-tert-Butyl-4-hydroxybenzyl alcohol
##JCAMP-DX=4.24
##DATA TYPE=MASS SPECTRUM
##ORIGIN=NIST Mass Spectrometry Data Center
##OWNER=NIST Mass Spectrometry Data Center
Collection (C) 2014 copyright by the U.S. Secretary of Commerce
on behalf of the United States of America. All rights reserved.
##CAS REGISTRY NO=88-26-6
##$NIST MASS SPEC NO=340709
##MOLFORM=C15 H24 O2
##MW=236
##$NIST SOURCE=MSDC
##XUNITS=M/Z
##YUNITS=RELATIVE INTENSITY
##XFACTOR=1
##YFACTOR=1
##FIRSTX=15
##LASTX=238
##FIRSTY=70
##MAXX=238
##MINX=15
##MAXY=9999
##MINY=10
##NPOINTS=165
##PEAK TABLE=(XY..XY)
15,70 19,20 27,250 29,871
30,20 31,240 38,10 39,561
40,50 41,2042 42,90 43,540
44,20 45,20 50,40 51,320
52,110 53,450 54,40 55,981
56,60 57,3673 58,240 59,60
60,70 61,10 62,30 63,150
64,170 65,480 66,150 67,270
68,30 69,280 70,40 71,80
72,80 73,50 74,50 75,330
76,60 77,901 78,220 79,621
80,831 81,210 82,30 83,50
84,10 85,30 86,50 87,70
88,110 89,661 91,1882 92,190
93,210 94,140 95,220 96,20
97,10 101,30 102,120 103,981
104,120 105,861 106,100 107,510
108,60 109,70 110,60 113,10
114,10 115,1141 116,420 117,721
118,110 119,500 120,80 121,420
122,40 123,120 124,10 126,20
127,310 128,1021 129,1061 130,250
131,1852 132,260 133,360 134,90
135,280 136,40 137,110 138,10
139,30 140,10 141,390 142,310
143,360 144,130 145,450 146,120
147,1401 148,180 149,280 150,30
151,40 152,50 153,100 154,50
155,130 156,70 157,130 158,70
159,170 160,60 161,1301 162,190
163,260 164,40 165,50 166,10
167,10 169,20 170,40 171,30
172,10 173,100 174,20 175,270
176,50 177,400 178,50 179,270
180,30 185,80 186,10 187,50
188,20 189,70 190,10 191,120
192,20 193,1231 194,150 195,10
203,140 204,30 205,561 206,80
207,10 217,10 218,50 219,140
221,9999 222,1611 223,160 224,10
233,10 234,10 236,2162 237,360
238,30
##END=
