##TITLE=Daucol
##JCAMP-DX=4.24
##DATA TYPE=MASS SPECTRUM
##ORIGIN=R.I.REED CHEMISTRY DEPT., UNIV. OF GLASGOW
##OWNER=NIST Mass Spectrometry Data Center
Collection (C) 2014 copyright by the U.S. Secretary of Commerce
on behalf of the United States of America. All rights reserved.
##CAS REGISTRY NO=887-08-1
##$NIST MASS SPEC NO=11447
##MOLFORM=C15 H26 O2
##MW=238
##$NIST SOURCE=MSDC
##XUNITS=M/Z
##YUNITS=RELATIVE INTENSITY
##XFACTOR=1
##YFACTOR=1
##FIRSTX=24
##LASTX=240
##FIRSTY=5
##MAXX=240
##MINX=24
##MAXY=9999
##MINY=2
##NPOINTS=169
##PEAK TABLE=(XY..XY)
24,5 25,18 26,106 27,751
28,166 29,814 30,22 31,93
35,2 36,7 37,23 38,35
39,640 40,151 41,2540 42,209
43,4452 44,70 45,183 46,6
50,34 51,98 52,60 53,535
54,91 55,1315 56,164 57,246
58,155 59,82 60,4 61,6
62,8 63,32 64,11 65,211
66,85 67,548 68,116 69,1103
70,151 71,841 72,51 73,13
74,11 75,12 76,13 77,608
78,115 79,732 80,145 81,970
82,146 83,337 84,176 85,364
86,56 87,16 88,6 89,16
90,31 91,690 92,236 93,2010
94,740 95,604 96,185 97,930
98,110 99,80 100,62 101,11
102,5 103,33 104,20 105,307
106,63 107,795 108,478 109,442
110,138 111,194 112,55 113,61
114,21 115,26 116,15 117,87
118,23 119,216 120,72 121,485
122,153 123,504 124,142 125,141
126,93 127,20 128,7 129,13
130,8 131,44 132,22 133,1785
134,260 135,531 136,2420 137,465
138,317 139,695 140,740 141,77
142,11 143,7 144,8 145,32
146,9 147,66 148,22 149,1029
150,443 151,9999 152,1170 153,453
154,79 155,15 159,68 160,194
161,69 162,26 163,34 164,12
165,33 166,32 167,73 168,28
169,9 175,157 176,667 177,202
178,28 179,17 180,60 181,36
182,10 183,5 187,49 188,8
191,10 192,21 193,741 194,3054
195,907 196,100 197,8 205,115
206,18 207,3 208,5 209,7
210,9 220,185 221,41 222,6
223,111 224,16 238,280 239,42
240,4
##END=
