##TITLE=Tripelennamine
##JCAMP-DX=4.24
##DATA TYPE=MASS SPECTRUM
##ORIGIN=Virginia Division of Forensic Science
##OWNER=NIST Mass Spectrometry Data Center
Collection (C) 2014 copyright by the U.S. Secretary of Commerce
on behalf of the United States of America. All rights reserved.
##CAS REGISTRY NO=91-81-6
##$NIST MASS SPEC NO=250622
##MOLFORM=C16 H21 N3
##MW=255
##$NIST SOURCE=MSDC
##XUNITS=M/Z
##YUNITS=RELATIVE INTENSITY
##XFACTOR=1
##YFACTOR=1
##FIRSTX=15
##LASTX=257
##FIRSTY=140
##MAXX=257
##MINX=15
##MAXY=9999
##MINY=10
##NPOINTS=116
##PEAK TABLE=(XY..XY)
15,140 16,10 17,10 18,20
19,10 26,30 27,180 28,240
29,150 30,520 31,10 36,10
37,10 38,50 39,510 40,70
41,260 42,1381 43,310 44,170
45,70 46,10 50,120 51,730
52,550 53,110 54,60 55,50
56,390 58,8928 59,320 60,10
61,10 62,40 63,240 65,1541
66,130 67,70 68,10 69,10
71,1631 72,1771 73,80 74,10
75,30 76,50 77,170 78,1231
79,1401 80,160 81,10 89,300
91,9999 92,810 93,160 94,40
95,20 96,10 102,20 103,40
104,60 105,130 106,380 107,280
108,20 109,10 113,10 114,10
115,30 116,20 117,50 118,230
119,570 120,90 121,60 122,10
125,10 126,10 127,30 128,30
129,10 130,10 131,20 132,10
133,20 134,20 154,50 155,20
156,10 162,40 163,30 164,10
166,20 167,90 168,90 169,10
180,30 181,120 183,880 184,1020
185,1571 186,210 187,10 192,10
193,10 195,120 197,2642 198,390
199,20 210,10 211,100 212,10
253,10 255,300 256,50 257,10
##END=
