##TITLE=Adenosine, 2'-deoxy-
##JCAMP-DX=4.24
##DATA TYPE=MASS SPECTRUM
##ORIGIN=Japan AIST/NIMC Database- Spectrum MS-NW-2025
##OWNER=NIST Mass Spectrometry Data Center
Collection (C) 2014 copyright by the U.S. Secretary of Commerce
on behalf of the United States of America. All rights reserved.
##CAS REGISTRY NO=958-09-8
##$NIST MASS SPEC NO=229866
##MOLFORM=C10 H13 N5 O3
##MW=251
##$NIST SOURCE=MSDC
##XUNITS=M/Z
##YUNITS=RELATIVE INTENSITY
##XFACTOR=1
##YFACTOR=1
##FIRSTX=12
##LASTX=252
##FIRSTY=20
##MAXX=252
##MINX=12
##MAXY=9999
##MINY=10
##NPOINTS=121
##PEAK TABLE=(XY..XY)
12,20 13,30 14,60 15,209
16,10 17,119 18,539 19,60
24,10 25,20 26,149 27,759
28,1889 29,799 30,209 31,519
32,20 36,10 37,50 38,229
39,769 40,289 41,489 42,359
43,1019 44,639 45,789 46,20
47,129 49,10 50,50 51,80
52,119 53,619 54,1029 55,509
56,219 57,429 58,50 59,20
60,60 61,40 64,40 65,169
66,549 67,239 68,449 69,409
70,519 71,299 72,80 73,769
74,30 75,10 77,20 78,10
79,30 80,259 81,1069 82,99
83,30 84,30 85,80 86,30
87,20 91,40 92,149 93,99
94,50 95,40 96,30 97,359
98,449 99,209 100,10 106,10
107,139 108,2379 109,179 110,10
116,50 117,249 118,80 119,149
120,40 121,10 133,20 134,249
135,9999 136,1589 137,99 145,40
146,10 147,10 148,30 149,10
160,30 161,99 162,1039 163,109
164,419 165,40 173,20 174,20
178,10 179,20 185,10 190,20
191,70 192,10 203,10 204,10
205,10 215,20 220,30 221,129
222,20 233,20 234,20 251,80
252,10
##END=
